%nproc=24
%mem=50GB
#p M062X/6-311+G(2d,p) nosymm em=GD3 counterpoise=3

Title Card Required

0 1
O          11.01567900     12.23100500      8.97854400       1
H          10.61860500     11.76011300      8.24560300       1
H          11.89643400     12.50788800      8.63744600       1
O          10.29907300     15.00738200      8.69814300       2
H          10.41001700     14.06726400      8.89644500       2
H          10.75685200     15.46393100      9.41259900       2
O          11.07684200     11.42189100     11.67340800       3
H          10.47507800     10.69801300     11.81134100       3
H          11.03303600     11.63738800     10.72682000       3     

