%nproc=24
%mem=10GB
#p M062X/6-311+G(2d,p) nosymm em=GD3 counterpoise=2

Title Card Required

0 1
C           6.01430400     15.45363200     10.05610200        1
C           6.76948800     16.56373800     10.56765400        1
C           6.45259600     17.86869500     10.18178300        1
C           5.39161800     18.03880700      9.30828200        1
C           4.64625400     16.94479700      8.82139600        1
C           4.94309300     15.63985300      9.18085100        1
H           7.03446500     18.70792100     10.55892000        1
H           5.11636000     19.04234500      8.98431500        1
H           3.81404400     17.14042900      8.14444100        1
H           4.36480000     14.80115800      8.80821800        1
H           6.37669800     13.37158200     10.36462200        1
C           7.66333400     14.74185800     11.41061500        1
H           8.31103800     14.05352200     11.93959800        1
N           6.58527100     14.30911700     10.62398100        1
N           7.77784000     16.07467000     11.40873200        1
O           7.32006300     16.31600200      6.79349200        2
H           7.37410500     15.35493200      6.81020200        2
H           6.70864100     16.54042100      7.50533900        2

