%nproc=16
%mem=80000MB
#p M062X/6-311+G(2d,p) nosymm em=GD3 counterpoise=3

Title Card Required

0 1
C          12.77237900     10.61012300      9.47118700      1
C          12.86614500      9.99694100     10.71399800      1
C          11.09586100      9.11380400      9.63397200      1
N          11.68448000     10.03672200      8.81283000      1
H          13.34585800     11.41990200      9.04885900      1
H          13.55404500     10.17578700     11.51704600      1
H          10.18414600      8.54904100      9.41438500      1
C          11.16828300     10.44717100      7.51943200      1
H          11.26317900      9.63956000      6.77609300      1
H          10.09145000     10.73790600      7.60082300      1
H          11.69328500     11.35344200      7.15412600      1
N          11.82195100      9.07020300     10.79812300      1
C          11.44238000      8.32587700     12.00153100      1
H          12.26282900      7.61173100     12.24324200      1
H          10.52654700      7.72035300     11.77787200      1
C          11.17438100      9.25359900     13.20917000      1
H          11.44516000      8.70547200     14.13527500      1
H          11.85973800     10.13168700     13.17797900      1
C           9.73052400      9.73290600     13.31521300      1
H           9.59812700     10.35936800     14.21586300      1
H           9.03193700      8.88697000     13.43381100      1
S           9.24519000     10.68886900     11.85762200      1
O           7.98474400     11.38343200     12.14415600      1
O          10.41655100     11.53687400     11.55827900      1
O           9.07872600      9.60807100     10.81692600      1
P           7.07019400     11.46717800      8.61171300      2
O           8.22561100     12.25684200      8.18770700      2
O           6.27483100     11.93495100      9.90155000      2
H           6.86997800     11.80768400     10.75733300      2
O           5.93327200     11.51210600      7.49228100      2
H           5.12859500     10.97531600      7.84645100      2
O           7.32918700      9.90695200      8.76124800      2
H           7.97314900      9.73236600      9.58141300			2
O          11.15794100     12.72822700      9.15333900      3
H          10.98929200     12.41315900     10.06757600      3
H          10.27006800     12.84943000      8.81159300      3     


