memory 200 GB

molecule dimer {
0 1
C     18.42000000    2.62100000   13.84400000
C     18.59000000    1.60000000   14.76700000
C     16.43300100    1.58600000   14.10000000
N     17.08200100    2.59200000   13.43800000
H     19.12599900    3.33700000   13.46900000
H     19.46500000    1.29800000   15.30900000
H     15.38000000    1.28300000   13.98600000
C     16.47300000    3.54200000   12.52500000
H     17.23300000    4.12800000   11.98600000
H     15.83100000    3.02500000   11.77600000
H     15.81200000    4.24800000   13.08400000
N     17.35600100    0.95700000   14.90000000
C     17.03700100   -0.03900000   15.92300000
H     17.79200000   -0.85500000   15.87800000
H     16.04200000   -0.50500000   15.68300000
C     17.01300000    0.61300000   17.32399900
H     17.63800000    0.01200000   18.01499900
H     17.49799900    1.61400000   17.28900000
C     15.61100000    0.74400000   17.89399900
H     15.65200000    1.17700000   18.91099900
H     15.13600000   -0.24700000   18.01800000
S     14.49100000    1.77400000   16.89600000
O     13.67000000    2.49500000   17.85300100
O     15.34900000    2.61700000   15.99600000
O     13.79400000    0.77600000   16.01800000
--
0 1
P     12.80500000    2.67100000   13.28500000
O     13.71300000    1.96800000   12.37500000
O     13.52600000    3.85500000   14.08300000
H     14.18200000    3.47800000   14.79300000
O     11.68700000    3.46900000   12.47800000
H     11.09300000    3.94700000   13.17600000
O     11.97800000    1.81400000   14.31200000
H     12.66100000    1.28700000   14.96800000
}

set {
    scf_type DF
    freeze_core True
    basis aug-cc-pVTZ
}

energy('sapt2+(3)dmp2')
