%nproc=24
%mem=50GB
#p M062X/6-311+G(2d,p) nosymm em=GD3 counterpoise=4

Title Card Required

0 1
P          12.63864200      5.44280000      6.38167600       1
O          13.07041300      6.40100000      5.36270700       1
O          13.91517000      4.81637800      7.09593800       1
H          13.60053500      4.05584200      7.71206500       1
O          11.70490000      6.02040900      7.53165700       1
H          12.06035500      6.96362600      7.83744300       1
O          11.83260800      4.16794100      5.89883800       1
H          10.80012100      4.37738300      5.93347500       1
O          11.30381000      7.65713400      3.37871700       2
H          11.93085200      7.13310100      3.90848400       2
H          11.33163900      8.52447400      3.78122300       2
O           8.83683600      6.50880000      3.81853700       3
H           9.70720200      6.93504900      3.68269100       3
H           8.65938600      6.05874100      2.99630400       3
O           9.09672400      4.75610000      5.95446700       4
H           9.01343400      5.33755400      6.71323800       4
H           8.96260600      5.34350400      5.18467000       4

