%chk=PA.chk
%nprocshared=16
%mem=50GB
#p 6-311+g(2d,p) nosymm em=gd3 m062x

Title Card Required

0 1
 P                 12.14129800    6.12561100    9.78923300
 O                 11.72261800    6.67405700   11.06933600
 O                 10.89542200    5.63967500    8.92877400
 H                 11.24226200    5.22091500    8.05681100
 O                 13.00756100    7.04352100    8.82386100
 H                 12.80870300    8.06035700    9.01861000
 O                 13.03379100    4.79540900    9.81391900
 H                 14.01505700    5.06930900    9.91531000

