%nproc=24                                              
%mem=50GB                                              
#p B3LYP/6-311+G(2d,p) opt freq scrf(smd,solvent=water)

Title Card Required

0 1
 C                 14.55891300   11.57695700   16.27905100
 H                 14.83168800   10.54311700   16.02266200
 H                 14.47436300   11.66443400   17.37454900
 H                 15.40888100   12.23052800   15.97518000
 C                 13.57064800   12.16387800   14.10683700
 H                 14.18002900   11.30653400   13.75666400
 H                 14.22286800   13.07910700   13.99014600
 C                 12.81068600   13.29337300   16.18936800
 H                 13.66496600   14.00137600   16.34634800
 H                 12.13380800   13.84309800   15.49718700
 H                 12.31367300   13.14936600   17.15357300
 C                 12.25201700   10.93735500   15.82607100
 H                 12.16117000   10.69339400   16.89790000
 H                 11.25718800   11.27126800   15.47795700
 H                 12.50388500   10.01063700   15.28451200
 C                 12.29403900   12.29358000   13.26375400
 H                 11.51612100   12.88142500   13.80285200
 H                 11.84995500   11.29504600   13.08396900
 C                 12.58731500   12.96175800   11.92760400
 H                 11.70829700   12.89739900   11.26275100
 H                 13.40452800   12.45447800   11.38931200
 N                 13.28730200   12.00114700   15.59505700
 S                 13.03252500   14.73463900   12.09804800
 O                 12.59309800   15.07644000   13.49037000
 O                 14.52155300   14.69964600   12.03108400
 O                 12.33852600   15.41885400   11.02004300
 P                 15.59206800   15.93201200   15.08496600
 O                 15.59742900   14.60095900   15.71128300
 O                 16.21187300   16.04687300   13.64177300
 H                 15.58930000   15.49032200   12.95356300
 O                 14.17176800   16.63602600   15.07796800
 H                 13.50172100   16.06318200   14.47359000
 O                 16.48438300   16.93377800   15.95146500
 H                 16.46343800   17.84804200   15.47257000

