memory 20 GB

molecule dimer {
0 1
C     14.55900000   11.57700000   16.27899900
H     14.83200000   10.54300000   16.02300100
H     14.47400000   11.66400000   17.37500000
H     15.40900000   12.23100000   15.97500000
C     13.57100000   12.16400000   14.10700000
H     14.18000000   11.30700000   13.75700000
H     14.22300000   13.07900000   13.99000000
C     12.81100000   13.29300000   16.18899900
H     13.66500000   14.00100000   16.34600100
H     12.13400000   13.84300000   15.49700000
H     12.31400000   13.14900000   17.15399900
C     12.25200000   10.93700000   15.82600000
H     12.16100000   10.69300000   16.89800100
H     11.25700000   11.27100000   15.47800000
H     12.50400000   10.01100000   15.28500000
C     12.29400000   12.29400000   13.26400000
H     11.51600000   12.88100000   13.80300000
H     11.85000000   11.29500000   13.08400000
C     12.58700000   12.96200000   11.92800000
H     11.70800000   12.89700000   11.26300000
H     13.40500000   12.45400000   11.38900000
N     13.28700000   12.00100000   15.59500000
S     13.03300000   14.73500000   12.09800000
O     12.59300000   15.07600000   13.49000000
O     14.52200000   14.70000000   12.03100000
O     12.33900000   15.41900000   11.02000000
--
0 1
P     15.59200000   15.93200000   15.08500000
O     15.59700000   14.60100000   15.71100000
O     16.21200000   16.04700100   13.64200000
H     15.58900000   15.49000000   12.95400000
O     14.17200000   16.63600000   15.07800000
H     13.50200000   16.06300000   14.47400000
O     16.48399900   16.93400000   15.95100000
H     16.46299900   17.84800000   15.47300000
}

set {
    scf_type DF
    freeze_core True
    basis aug-cc-pVTZ
}

energy('sapt2+(3)dmp2')
