%nprocshared=24
%mem=50GB
#p opt freq b3lyp/6-311+g(2d,p) em=gd3bj

Title Card Required

0 1
 C                  0.63388300    0.96688100   -0.00007000
 C                  1.12921800   -0.30807500   -0.00005500
 C                 -1.00039500   -0.51668200    0.00006700
 N                 -0.73568700    0.82142500    0.00003200
 H                 -1.41446100    1.56494700    0.00014700
 H                  1.11166100    1.93146900   -0.00014300
 H                  2.16188000   -0.61757800   -0.00011100
 H                 -2.00554900   -0.90859300    0.00013300
 N                  0.10286300   -1.22471000    0.00001400

