%nprocshared=24
%mem=50GB
#p M052X/6-31G*

Title Card Required

0 1
 C                  0.63966900    0.96348900   -0.00007700
 C                  1.12897900   -0.31407500   -0.00005400
 C                 -1.00461600   -0.51165300    0.00006500
 N                 -0.73145200    0.82522400    0.00004600
 H                 -1.40526900    1.57295100    0.00014200
 H                  1.12097000    1.92592100   -0.00014600
 H                  2.15937800   -0.62982200   -0.00011000
 H                 -2.01155600   -0.89783400    0.00013100
 N                  0.09606400   -1.22490700    0.00000900

