%chk=MPyCOO.chk
%nprocshared=16
%mem=50GB
#p 6-311+g(2d,p) nosymm em=gd3 m062x

Title Card Required

0 1
 C                  3.52184000   17.10636000   17.58087400
 C                  2.68384400   17.52388500   16.53466600
 C                  2.06667500   18.77372000   16.61133200
 C                  2.34854700   19.60736500   17.70417400
 C                  3.21229000   19.17758300   18.69859600
 H                  1.38789700   19.11240400   15.81902100
 H                  4.01092600   16.11979000   17.55781400
 H                  1.93680500   20.62098900   17.73469300
 H                  3.49700100   19.82209800   19.53647900
 C                  2.55121500   16.65553200   15.34064100
 H                  2.18573800   15.64910900   15.57234700
 H                  1.89954700   17.08988400   14.56705000
 H                  3.54615700   16.54459900   14.84952100
 N                  3.75507300   17.92093000   18.64323000
 C                  4.64499500   17.47098400   19.73723600
 H                  4.19508800   17.77038300   20.71173900
 H                  4.69224800   16.35677500   19.74137200
 C                  6.06390900   18.05097700   19.60577300
 H                  6.02873900   19.15052800   19.42997500
 H                  6.58953500   17.92347200   20.57365100
 C                  6.86951300   17.39344500   18.48887200
 H                  7.95491500   17.54110800   18.64945900
 H                  6.70791300   16.30719400   18.42886900
 C                  6.48690300   18.06810000   17.15937900
 O                  6.97823400   19.17975300   16.93677600
 O                  5.66215500   17.45167500   16.44469900

