%chk=PA.chk
%nprocshared=16
%mem=50GB
#p 6-311+g(2d,p) nosymm em=gd3 m062x

Title Card Required

0 1
 P                  4.53370000   20.24086100   14.67932600
 O                  3.42404600   20.49074300   15.60935500
 O                  4.21370000   20.93376300   13.27419900
 H                  5.02037100   20.75668900   12.65599900
 O                  5.94484500   20.83344300   15.07328500
 H                  6.38657500   20.18687500   15.81144600
 O                  4.75290000   18.71919500   14.28636400
 H                  5.17616500   18.19981900   15.13181500

