%nproc=24
%mem=50GB
#p M062X/6-311+G(2d,p) nosymm em=GD3 counterpoise=3

Title Card Required

0 1    
P          15.39207600     16.59722000     11.50739900         1
O          15.04061200     16.32934700     12.90972900         1
O          16.88568800     16.12462100     11.22335700         1
H          17.08447200     16.33545300     10.22996000         1
O          14.53618600     15.86167500     10.40233700         1
H          13.55377700     16.30109700     10.40104800         1
O          15.40671600     18.14083600     11.13325600         1
H          14.40054500     18.48719000     11.05916800         1
O          11.10099700     15.03829900     12.28057000         2
H          11.43850000     15.71673600     11.64326400         2
H          11.17454000     14.21564600     11.80568200         2
O          12.77372600     15.15883300     14.51086000         3
H          13.60812700     15.22178800     14.03477300         3
H          12.12472400     15.00322100     13.80235900         3 


