%mem=50GB
%nprocshared=24
#p opt freq b3lyp/6-311+g(2d,p) em=gd3bj

Title Card Required

0 1
 C                 -2.89084100   -0.89804200   -1.01167300
 H                 -3.42683100   -0.19220100   -1.64363100
 H                 -3.59724500   -1.53910500   -0.48765900
 H                 -2.21689600   -1.50260000   -1.61415700
 C                 -1.11027200    0.75946100   -0.78606500
 H                 -1.75561900    1.38390000   -1.40525300
 H                 -0.53830200    0.07796700   -1.41227700
 C                 -1.34145200   -1.14986600    0.85480000
 H                 -0.73296300   -0.63559900    1.59159200
 H                 -2.09002900   -1.78285100    1.32891600
 H                 -0.65918000   -1.71005500    0.21948800
 C                 -2.98054800    0.68502900    0.84989800
 H                 -3.68220600    0.02918200    1.36201700
 H                 -2.38389300    1.22305200    1.58083800
 H                 -3.52011600    1.39040700    0.21980600
 C                 -0.15418600    1.60743500    0.06758600
 H                 -0.21404800    1.33615600    1.12271500
 H                 -0.44330900    2.65917000   -0.00318500
 C                  1.30859700    1.43663100   -0.35008600
 H                  1.94495300    2.12000900    0.21095300
 H                  1.46324800    1.60822100   -1.41657300
 N                 -2.07481400   -0.14297800   -0.00535500
 S                  1.93077400   -0.24805600    0.02176300
 O                  1.55725000   -0.44134800    1.43839500
 O                  1.14666900   -1.12642800   -0.89012400
 O                  3.35807600   -0.19969900   -0.26215400

