%mem=50GB
%nprocshared=24
#p M052X/6-31G*

Title Card Required

0 1
 C                 -2.88395100   -0.89548600   -1.00503400
 H                 -3.42047200   -0.18815000   -1.63401600
 H                 -3.58752100   -1.53530000   -0.47673300
 H                 -2.21120200   -1.49926800   -1.60873800
 C                 -1.10183400    0.74948800   -0.78861300
 H                 -1.74511100    1.36580600   -1.41705600
 H                 -0.52249900    0.06093800   -1.40004000
 C                 -1.33506300   -1.14767900    0.85351700
 H                 -0.71617500   -0.63445100    1.58225400
 H                 -2.08612600   -1.77183000    1.33431000
 H                 -0.66183300   -1.71372800    0.21414200
 C                 -2.96400300    0.68995200    0.84769100
 H                 -3.66710900    0.03738200    1.36100500
 H                 -2.36275400    1.22597600    1.57563200
 H                 -3.49988100    1.39546300    0.21534500
 C                 -0.15536000    1.60353000    0.06367600
 H                 -0.21576400    1.33184300    1.11816400
 H                 -0.44763000    2.65379900   -0.00962300
 C                  1.30619000    1.43476900   -0.35165200
 H                  1.94130900    2.11835700    0.20976600
 H                  1.46185000    1.60669700   -1.41759800
 N                 -2.06534700   -0.14246900   -0.00481600
 S                  1.92153400   -0.24610300    0.02197900
 O                  1.55036100   -0.43459300    1.43907900
 O                  1.13402200   -1.12539500   -0.88530200
 O                  3.34785700   -0.20576800   -0.26406100

