%nproc=24
%mem=100GB
#p M062X/6-311+G(2d,p) nosymm em=GD3 counterpoise=3

Title Card Required

0 1
O          11.80003600     11.64312400      8.70156000      1
H          11.77757100     11.74231600      9.65856900      1
H          11.05075800     12.16126800      8.37782600      1
O           9.37141300     12.77951100      7.69817400      2
H           9.41234800     12.89963500      6.74985400      2
H           9.05899500     11.85917400      7.81793100      2
O           8.03245300     14.18574900      9.75806000      3
H           8.53968500     13.77879700      9.03609500      3
H           7.47396800     14.83997200      9.34887300      3

