memory 200 GB

molecule dimer {
0 1
C      3.52200000   17.10600100   17.58099900
C      2.68400000   17.52400000   16.53500000
C      2.06700000   18.77400000   16.61100000
C      2.34900000   19.60700000   17.70400000
C      3.21200000   19.17799900   18.69899900
H      1.38800000   19.11200000   15.81900000
H      4.01100000   16.12000100   17.55800100
H      1.93700000   20.62100000   17.73500100
H      3.49700000   19.82200100   19.53599900
C      2.55100000   16.65600000   15.34100000
H      2.18600000   15.64900000   15.57200000
H      1.90000000   17.09000000   14.56700000
H      3.54600000   16.54500000   14.85000000
N      3.75500000   17.92100000   18.64300000
C      4.64500000   17.47100100   19.73700000
H      4.19500000   17.77000000   20.71200000
H      4.69200000   16.35700000   19.74099900
C      6.06400000   18.05100100   19.60600100
H      6.02900000   19.15099900   19.43000000
H      6.59000000   17.92300000   20.57399900
C      6.87000000   17.39300000   18.48900000
H      7.95500000   17.54100000   18.64900000
H      6.70800000   16.30699900   18.42900100
C      6.48700000   18.06800100   17.15900000
O      6.97800000   19.18000000   16.93700000
O      5.66200000   17.45200000   16.44500000
--
0 1
P      4.53400000   20.24099900   14.67900000
O      3.42400000   20.49099900   15.60900000
O      4.21400000   20.93400000   13.27400000
H      5.02000000   20.75700000   12.65600000
O      5.94500000   20.83300000   15.07300000
H      6.38700000   20.18700000   15.81100000
O      4.75300000   18.71900000   14.28600000
H      5.17600000   18.20000100   15.13200000
}

set {
    scf_type DF
    freeze_core True
    basis aug-cc-pVTZ
}

energy('sapt2+(3)dmp2')
