%chk=MImPS_PA_1.chk
%nproc=16
%mem=80000MB
#p M062X/6-311+G(2d,p) nosymm em=GD3 counterpoise=2

Title Card Required

0 1
C          15.23507000     18.76692900     14.63081500      1
C          14.25241700     18.61778200     15.59768800      1
C          15.89636200     17.13237400     16.03726400      1
N          16.24584200     17.84567800     14.92352100      1
H          15.27979700     19.43274000     13.79055800      1
H          13.32125500     19.13569200     15.72144100      1
H          16.48919800     16.35357100     16.54121600      1
C          17.42840400     17.62888600     14.10984300      1
H          17.58423800     18.45188000     13.39605300      1
H          18.34006400     17.53381500     14.74218700      1
H          17.33270600     16.67436000     13.53657300      1
N          14.68513700     17.61567000     16.47230700      1
C          13.85366000     16.98752900     17.50017100      1
H          13.43613300     17.78076600     18.15845200      1
H          14.50154600     16.33816900     18.14886100      1
C          12.72408500     16.15924700     16.84835200      1
H          11.75694800     16.43756800     17.31355500      1
H          12.61775500     16.43457900     15.77429600      1
C          12.93383700     14.66022900     16.97284900      1
H          12.07907400     14.11830700     16.52458000      1
H          12.95176400     14.34525500     18.03201200      1
S          14.45448300     14.04448800     16.18495300      1
O          14.10085400     12.76046900     15.60581100      1
O          14.90964800     15.09979500     15.21781900      1
O          15.44681000     14.03036700     17.30988400      1
P          18.51015800     14.27018400     15.68900600      2
O          18.77954700     15.61274600     16.21026700      2
O          19.84285300     13.59383900     15.13618200      2
H          19.58529300     12.65730200     14.78405400      2
O          17.93144300     13.19377900     16.67783300      2
H          16.96527300     13.52385600     17.04156000      2
O          17.59656700     14.29219900     14.37525100      2
H          16.62179600     14.55997800     14.60480900			2

