%chk=PAgjf.chk
%nprocshared=16
%mem=50GB
#p 6-311+g(2d,p) nosymm em=gd3 m062x

Title Card Required

0 1
 P                 11.92638200    5.96067200    6.98705400
 O                 10.48878200    5.76144500    7.09897900
 O                 12.82479000    4.66314500    6.70995400
 H                 12.82936700    4.48745700    5.70090300
 O                 12.47214300    6.94169300    5.86557800
 H                 11.75656200    7.69562100    5.66718900
 O                 12.54388900    6.46966600    8.36200400
 H                 13.56087100    6.56420400    8.24768800

