%mem=50GB
%nprocshared=24
#p M052X/6-31G* scrf=(smd,solvent=water)

Title Card Required

0 1
 C                 -1.78485100   -1.57498800   -0.48952700
 C                 -2.74824900   -1.18944700   -1.39827900
 C                 -3.47242300   -0.03057900   -1.17099000
 C                 -3.23079000    0.74170000   -0.03136700
 C                 -2.25421300    0.30207200    0.84035600
 H                 -4.23119300    0.28241100   -1.87739600
 H                 -1.18230300   -2.46297400   -0.60368100
 H                 -2.91963700   -1.79918900   -2.27364000
 H                 -2.00147200    0.83744400    1.74444200
 C                 -3.99494900    1.99952000    0.24761300
 H                 -3.65972600    2.46755200    1.17232900
 H                 -3.86638900    2.71087800   -0.57092400
 H                 -5.06252200    1.78489700    0.33149400
 N                 -1.56062800   -0.83184400    0.60774900
 C                 -0.47025800   -1.20531300    1.54407800
 H                 -0.84909400   -1.05112300    2.55196900
 H                 -0.27644900   -2.26563100    1.39955000
 C                  0.78401800   -0.37060100    1.31497900
 H                  0.54560900    0.68616400    1.44703700
 H                  1.48962300   -0.64798100    2.09965400
 C                  1.40874100   -0.60754500   -0.05157500
 H                  0.74981400   -0.30938300   -0.86775600
 H                  1.68441400   -1.65378600   -0.19022600
 S                  2.91998300    0.34174300   -0.29944300
 O                  3.40026400   -0.02992500   -1.65089100
 O                  3.85829700   -0.06708800    0.77224700
 O                  2.53666900    1.77036800   -0.20357200

