%nprocshared=24
%mem=50GB
#p opt freq b3lyp/6-311+g(2d,p) scrf=(smd,solvent=water)

Title Card Required

0 1
 C                 -1.85467300   -1.01961500    0.09254400
 C                 -3.19769700   -1.31418800   -0.01362900
 C                 -4.11212300   -0.26835800   -0.08924500
 C                 -3.66237700    1.04771400   -0.05791600
 C                 -2.30851100    1.28706900    0.04894300
 N                 -1.44897800    0.25890600    0.12035900
 H                 -5.17087800   -0.47819100   -0.17269800
 H                 -1.07979300   -1.77022500    0.15604600
 H                 -3.51736200   -2.34626100   -0.03602500
 H                 -4.34857600    1.88079600   -0.11500600
 H                 -1.87735200    2.27735800    0.07977800
 P                  2.27350800   -0.07312900   -0.03300500
 O                  1.96846600   -1.44639100   -0.50152400
 O                  3.10685800    0.62782600   -1.23383600
 H                  3.30850800    1.55786900   -1.04650100
 O                  1.16038900    0.83792300    0.41869300
 H                 -0.41631000    0.46202500    0.20923100
 O                  3.36861800   -0.15671600    1.16479300
 H                  3.11962600    0.40435200    1.90854000

