%nproc=24
%mem=50GB
#p M062X/6-311+G(2d,p) nosymm em=GD3 counterpoise=2

Title Card Required

0 1
C           8.22452100     10.23820300     10.97240400       1
C           9.02504700      9.93643800     12.07511400       1
C           9.65163500      8.69871300     12.16814600       1
C           9.49465400      7.77626700     11.12203900       1
C           8.71852400      8.12630600     10.01728400       1
H          10.27054200      8.45039700     13.03861800       1
H           7.71029000     11.21300500     10.88590800       1
H           9.19087700     10.70498100     12.83747200       1
H           8.64018900      7.46132500      9.14922600       1
C          10.17789500      6.45885400     11.13809100       1
H           9.48555700      5.61686900     11.02703400       1
H          10.91770400      6.39471800     10.31213800       1
H          10.76245000      6.29437500     12.05749200       1
N           8.06685000      9.32709700      9.97018700       1
C           7.21845800      9.66370700      8.80120300       1
H           6.30999400      9.02039000      8.84172300       1
H           6.85919100     10.72526800      8.89700100       1
C           7.91912400      9.49388900      7.43782400       1
H           8.44237600      8.51414400      7.38097800       1
H           7.12652600      9.44186700      6.65873800       1
C           8.88065600     10.62405400      7.08484500       1
H           8.35749200     11.60114400      7.08588900       1
H           9.26477100     10.49768400      6.05623700       1
S          10.26581700     10.69742900      8.23821300       1
O          11.38024200     11.42174100      7.63400100       1
O          10.51510700      9.27383200      8.59228700       1
O           9.65675100     11.44676800      9.39728000       1
P          13.08898500      9.15168800     11.10202400       2
O          12.00480100      9.73610300     11.90200500       2
O          14.18371400     10.11746400     10.49699400       2
H          13.74663200     11.04156900     10.21663700       2
O          13.96959100      8.16574300     12.00014500       2
H          14.75220000      7.83394500     11.41669300       2
O          12.66276500      8.18960200      9.91910800       2
H          11.85131900      8.61747400      9.38862200			 2


