%chk=Im.chk
%nprocshared=16
%mem=10GB
#p 6-311+g(2d,p) nosymm em=gd3 m062x

Title Card Required

0 1
 C                  7.37655000   16.15353800   13.64678200
 C                  6.40180200   15.29266400   14.14836800
 C                  6.42503400   15.00146000   11.96491200
 N                  7.38791400   15.96573400   12.26190600
 H                  7.98070200   16.44098500   11.62055900
 H                  8.02360700   16.84405000   14.14292500
 H                  6.08158800   15.13150000   15.15916200
 H                  6.20646200   14.65013900   10.96383200
 N                  5.82858000   14.59267700   13.09645700

