%chk=PA.chk
%nprocshared=16
%mem=10GB
#p 6-311+g(2d,p) nosymm em=gd3 m062x

Title Card Required

0 1
 P                  3.46964200   12.46572300   11.25299100
 O                  4.49947500   12.83790200   10.29427000
 O                  3.78967000   12.59261400   12.80243900
 H                  4.50627300   13.35275400   12.96707500
 O                  2.13168000   13.29093000   11.00840800
 H                  1.42398400   12.97434100   11.68297600
 O                  2.92001900   10.96182500   11.18589900
 H                  3.53702100   10.37117200   11.75104900

