memory 200 GB

molecule dimer {
0 1
C      4.78700000    8.88300000    8.69100000
C      5.30300000    9.45800000    7.53500000
C      6.16400000   10.54800000    9.30900000
N      5.33600000    9.56900000    9.77600000
H      4.09200000    8.07300000    8.80500000
H      5.12100000    9.22000000    6.50400000
H      6.74600000   11.26100000    9.90900000
C      4.95400000    9.41200000   11.16700000
H      4.25300000   10.23700000   11.46000000
H      4.46100000    8.44500000   11.34700000
H      5.83800000    9.50000000   11.84000000
N      6.16700000   10.47800000    7.93500000
C      6.75500000   11.50900000    7.08000000
H      7.37900000   11.02300000    6.29700000
H      7.43900000   12.14600000    7.70900000
C      5.69200000   12.42300000    6.43100000
H      6.21500000   13.34900000    6.10000000
H      5.28900000   11.94900000    5.51800000
C      4.53700000   12.81800000    7.35200000
H      3.71800000   12.07800000    7.30700000
H      4.09600000   13.78100000    7.03200000
C      4.99800000   12.97600000    8.80700000
O      5.99300000   13.67800000    9.03400000
O      4.38300000   12.28700000    9.65300000
--
0 1
P      6.33000000   12.86200000   12.47100000
O      7.10400000   11.63400000   12.25600000
O      4.76400000   12.69200000   12.26900000
H      4.56100000   12.59900000   11.22100000
O      6.46100000   13.35000000   13.98300000
H      5.90500000   14.21700000   14.07000000
O      6.76500000   14.13400000   11.63300000
H      6.47300000   13.99200000   10.61800000
}

set {
    scf_type DF
    freeze_core True
    basis aug-cc-pVTZ
}

energy('sapt2+(3)dmp2')
