%nproc=24
%mem=50GB
#p M062X/6-311+G(2d,p) nosymm em=GD3 counterpoise=4

Title Card Required

0 1
C           9.94689000      9.44771700     11.57238900         1
C          11.18635400      9.00296400     11.09723100         1
C          11.22035800      8.11747100     10.01540700         1
C          10.02098300      7.72234700      9.42174000         1
C           8.81088000      8.21900900      9.89638600         1
H          12.17965700      7.77188200      9.61390200         1
H           9.87969600     10.14263600     12.42453700         1
H          10.02903200      7.06714400      8.54267100         1
H           7.85543500      7.96316300      9.41351100         1
C          12.42817900      9.54444900     11.69630000         1
H          13.24461500      8.81350300     11.73819500         1
H          12.78847400     10.39956300     11.08194200         1
H          12.28495000      9.95580200     12.70911900         1
N           8.78964900      9.05900900     10.97039700         1
C           7.50499000      9.60110800     11.46950100         1
H           6.70169600      8.83345100     11.32164900         1
H           7.58445200      9.77622000     12.56664500         1
C           7.09360300     10.89878100     10.75386500         1
H           6.88922200     10.69871000      9.67698000         1
H           6.10945000     11.21412700     11.16181100         1
C           8.09976900     12.03737900     10.88140300         1
H           7.60298300     13.01249400     10.70314900         1
H           8.53700200     12.10086600     11.89393700         1
C           9.19537000     11.86835800      9.82643000         1
O           8.87652100     11.97065400      8.63120400         1
O          10.34553200     11.58929900     10.24331000         1
O          11.07164400     12.19605700     12.77657800         2
H          10.84560000     12.00560200     11.83791100         2
H          11.48911500     13.04810900     12.75981100         2 
O           5.56548300      8.63476200      9.15258800         3
H           6.22490000      9.00626100      8.53779900         3
H           4.78471500      8.50229900      8.62412800         3  
O           7.59527100      9.69270100      7.54973300         4
H           7.91282300     10.56856900      7.84512200         4
H           8.37858900      9.30599500      7.14133500         4



