%nproc=24
%mem=50GB
#p M062X/6-311+G(2d,p) nosymm em=GD3 counterpoise=2

Title Card Required

0 1
O           3.66058600      7.04163700     11.40331300     1
H           3.95639900      6.95434500     12.30633400     1
H           4.26540800      6.43870000     10.90927300     1
O           6.63877700     11.62983700     11.79931100     2
H           6.86326900     10.68510200     11.76940900     2
H           7.23773800     11.99402000     12.44641200     2

