%chk=PA.chk
%nprocshared=16
%mem=50GB
#p 6-311+g(2d,p) nosymm em=gd3 m062x

Title Card Required

0 1
 P                 15.59206800   15.93201200   15.08496600
 O                 15.59742900   14.60095900   15.71128300
 O                 16.21187300   16.04687300   13.64177300
 H                 15.58930000   15.49032200   12.95356300
 O                 14.17176800   16.63602600   15.07796800
 H                 13.50172100   16.06318200   14.47359000
 O                 16.48438300   16.93377800   15.95146500
 H                 16.46343800   17.84804200   15.47257000

