%nproc=24
%mem=50GB
#p M062X/6-311+G(2d,p) nosymm em=GD3 counterpoise=2

Title Card Required

0 1
O          11.17167400      6.08944300     10.82820200       1
H          10.33812200      6.52878400     10.50738200       1
H          11.82623900      6.34333300     10.17646100       1
O          11.97240200     11.93069500     10.10706800       2
H          12.12696600     12.57314900     10.79973300       2
H          12.34757600     11.10451500     10.46229100       2

