%nproc=24
%mem=50GB
#p M062X/6-311+G(2d,p) nosymm em=GD3 counterpoise=2

Title Card Required

0 1
C           8.04576700     10.91726900      8.64520200         1
C           7.55401200      9.92926000      9.49440200         1
C           9.16380700     11.05392200     10.59077100         1
N           9.03906000     11.59811600      9.34268200         1
H           7.76685700     11.15390000      7.62853300         1
H           6.78993300      9.18205700      9.31318300         1
H           9.87479500     11.36523400     11.35894500         1
C           9.87064200     12.66911800      8.82621000         1
H          10.94905100     12.45332000      9.01075500         1
H           9.76007400     12.75904400      7.72280900         1
H           9.61249400     13.63355200      9.29515600         1
N           8.24989200     10.03713000     10.69603600         1
C           8.07485700      9.19521100     11.88007500         1
H           6.98120400      8.97174300     11.99522300         1
H           8.39657000      9.76633400     12.78259700         1
C           8.85206700      7.87186300     11.78465600         1
H           8.55431900      7.23642700     12.64495300         1
H           8.52718200      7.29400900     10.89014000         1
C          10.36613000      8.04687300     11.76286800         1
H          10.86786700      7.09161400     12.02052200         1
H          10.70425000      8.77973800     12.51980800         1
C          10.82832700      8.45114800     10.36677900         1
O          11.40856400      9.56082600     10.25409200         1
O          10.58895400      7.68212000      9.42105000         1
P          11.23038000      9.83369500      6.74365700         2
O           9.87912400     10.41099100      6.64557900         2
O          11.30838700      8.26613800      6.90511400         2
H          11.05772700      8.01095100      7.91938400         2
O          12.02096400     10.12390000      5.39192000         2
H          12.96813700      9.72367300      5.50264600         2
O          12.13958200     10.49546500      7.85838500         2
H          11.88298900     10.07731600      8.81153800         2 


