%nproc=24
%mem=50GB
#p M062X/6-311+G(2d,p) nosymm em=GD3 counterpoise=5

Title Card Required

0 1
P          11.17419400      7.66026200      7.66062000      1
O          12.30287600      7.44603400      8.56389200      1
O           9.81938800      7.18636900      8.33058200      1
H           8.98478200      7.69404800      7.95478000      1
O          10.90406000      9.12191600      7.10424600      1
H          11.04901600      9.83492400      7.87609500      1
O          11.33446800      6.81426500      6.32327500      1
H          10.62510000      7.13031300      5.64819200			1
O           7.52493300      8.55190900      7.70322900      2
H           7.74412900      9.34495300      7.17566400      2
H           7.28000600      8.89865700      8.57335100      2     
O           6.99303900      9.64033500     10.26034400      3
H           7.74318100     10.29634900     10.28350400      3
H           6.20990100     10.17618100     10.19615700      3
O           8.45509100     10.82619000      6.34699900      4
H           8.61569700     11.59307200      6.93331600      4
H           9.31477400     10.39922400      6.30432100      4     
O          13.60378800     10.03500100      9.81178500      5
H          12.77443100     10.44571300      9.50094600      5
H          13.58710400      9.18198400      9.37069900      5 








