%chk=QACOO.chk
%nprocshared=16
%mem=50GB
#p 6-311+g(2d,p) nosymm em=gd3 m062x

Title Card Required

0 1
 C                  4.36393300   12.69305900   10.94130600
 H                  4.11575300   12.15539900   10.01365400
 H                  5.25453600   13.31271200   10.76701400
 H                  4.63474000   11.91404900   11.70121200
 C                  2.83474800   14.52376200   10.38404100
 H                  2.58450300   14.03772400    9.42620400
 H                  1.95472400   15.11396000   10.69922200
 H                  3.66242600   15.22935800   10.20256500
 C                  2.04207200   12.58953600   11.66098500
 H                  1.20941200   13.08931600   12.19609400
 H                  1.67142200   12.15899800   10.72319900
 H                  2.33511000   11.75160600   12.33894600
 C                  3.62551200   14.22462000   12.70933300
 H                  4.52506200   14.83552400   12.49397800
 H                  3.95067400   13.42869900   13.43820900
 C                  2.52227400   15.09145100   13.33452300
 H                  1.51348800   14.77821000   12.98957500
 H                  2.63909100   16.14877300   13.03829000
 C                  2.54875400   14.96294700   14.85905400
 H                  1.69674600   15.49151000   15.32001400
 H                  3.46059100   15.40629100   15.29424400
 N                  3.20139700   13.51314400   11.43134000
 C                  2.46276400   13.47610100   15.26211000
 O                  1.77975700   12.74494500   14.50636800
 O                  3.11749200   13.11508900   16.24365600

