%nprocshared=24
%mem=50GB
#p opt freq b3lyp/6-311+g(2d,p) scrf=(smd,solvent=water) em=gd3bj

Title Card Required

0 1
 C                 -1.14334500   -0.71859000   -0.00019800
 C                 -1.19469700    0.67014900   -0.00012100
 C                  0.00001600    1.38059200    0.00009100
 C                  1.19471300    0.67012600    0.00021000
 C                  1.14332800   -0.71861400    0.00009900
 N                 -0.00001600   -1.41806000   -0.00009200
 H                  0.00001600    2.46400500    0.00016900
 H                 -2.06068400   -1.29717800   -0.00036500
 H                 -2.15119800    1.17745300   -0.00022500
 H                  2.15123500    1.17738900    0.00038200
 H                  2.06065400   -1.29722200    0.00020300

