%nproc=24
%mem=50GB
#p M062X/6-311+G(2d,p) nosymm em=GD3 counterpoise=2

Title Card Required

0 1
O           9.64810800     16.75065400      1.10573700       1
H           8.99144000     17.46703700      1.20730700       1
H           9.15297700     16.02305500      0.73097700       1
O           7.68330200     18.59730100      1.78910100       2
H           7.44112900     18.04442800      2.55279000       2
H           8.10762200     19.36038200      2.18212400       2




