memory 180 GB

molecule dimer {
0 1
C     13.80800000    5.54300000    8.39600000
C     14.75200000    5.59600000    7.37800000
C     14.79900000    6.70800000    6.53200000
C     13.83100000    7.69900000    6.65500000
C     12.83900000    7.57300000    7.64700000
H     15.60600000    6.80500000    5.80400000
H     13.80100000    4.72600000    9.13100000
H     15.50000000    4.80500000    7.29700000
H     12.02100000    8.30900000    7.71800000
C     13.84100000    8.93400000    5.83400000
H     14.62100000    8.93700000    5.06300000
H     12.88200000    9.13200000    5.34000000
H     14.04400000    9.80700000    6.50000000
N     12.87600000    6.54100000    8.52800000
C     11.94500000    6.46500000    9.68000000
H     11.08000000    5.83400000    9.37500000
H     12.47500000    5.93100000   10.51600000
C     11.44400000    7.81900000   10.21900000
H     11.10100000    8.48500000    9.40100000
H     10.51800000    7.61700000   10.80500000
C     12.45200000    8.52000000   11.11800000
H     13.16600000    7.80400000   11.56800000
H     11.94200000    8.98800000   11.98100000
S     13.39900000    9.83600000   10.29000000
O     14.56100000   10.05300000   11.18200000
O     12.45800000   10.93300000   10.10400000
O     13.83500000    9.21300000    8.97900000
--
0 1
P     16.21299900    7.13600000   10.24000000
O     15.07700000    6.25900000   10.55900000
O     17.54200000    6.25900000   10.10500000
H     18.32600000    6.91300000    9.96200000
O     16.12100000    7.85000000    8.82700000
H     15.23800000    8.47300000    8.82000000
O     16.60899900    8.23100000   11.30600000
H     15.85400000    8.99700000   11.30900000
}

set {
    scf_type DF
    freeze_core True
    basis aug-cc-pVTZ
}

energy('sapt2+(3)dmp2')
