memory 100 GB

molecule dimer {
0 1
P      4.80300000    6.25000000    4.59200000
O      5.15000000    5.02400000    5.29600000
O      3.84500000    7.17000000    5.46200000
H      3.56700000    7.98200000    4.89400000
O      5.97900000    7.19000000    4.07900000
H      6.76200000    7.15700000    4.75200000
O      3.94900000    6.10200000    3.24900000
H      4.56300000    5.72800000    2.51800000
--
0 1
P      8.49300000    5.73300000    6.87300000
O      8.14300000    6.96300000    6.17600000
O      7.32000000    4.79200000    7.38700000
H      6.53400000    4.82600000    6.71600000
O      9.44700000    4.81800000    5.99400000
H      9.73200000    4.00600000    6.55800000
O      9.35300000    5.87700000    8.21200000
H      8.73900000    6.23300000    8.95200000
}

set {
    scf_type DF
    freeze_core True
    basis aug-cc-pVTZ
}

energy('sapt2+(3)dmp2')
