%nproc=24
%mem=50GB
#p M062X/6-311+G(2d,p) nosymm em=GD3 counterpoise=3

Title Card Required

0 1    
O           8.16079700      8.12452600      9.11297900         1
H           8.65982700      8.62072100      8.41019100         1
H           7.97976300      7.27755500      8.71882300         1
O           9.88987800      8.12193500     11.28444200         2
H          10.73149100      8.08876000     10.81738100         2
H           9.22743800      7.99733000     10.58101200         2 
O          12.00118600     12.99374700      9.00359900         3
H          12.85871200     12.61664500      8.79193500         3
H          11.42043500     12.61790300      8.30716400         3 

