%chk=MImSO3_PA.chk
%nproc=16
%mem=50GB
#p M062X/6-311+G(2d,p) nosymm em=GD3 counterpoise=2

Title Card Required

0 1
C          18.41983100      2.62124600     13.84377400      1
C          18.59049400      1.60008200     14.76654700      1
C          16.43296300      1.58605000     14.09970700      1
N          17.08195200      2.59229100     13.43847000      1
H          19.12644300      3.33653200     13.46912300      1
H          19.46516100      1.29815400     15.30890000      1
H          15.38015300      1.28310100     13.98625300      1
C          16.47347900      3.54188300     12.52452100      1
H          17.23346000      4.12794600     11.98574400      1
H          15.83090300      3.02457900     11.77636300      1
H          15.81239800      4.24820300     13.08440700      1
N          17.35622100      0.95664100     14.89979900      1
C          17.03690900     -0.03927900     15.92327100      1
H          17.79165500     -0.85505900     15.87753600      1
H          16.04207300     -0.50470800     15.68341400      1
C          17.01261700      0.61255500     17.32382000      1
H          17.63794000      0.01173700     18.01475400      1
H          17.49786000      1.61443000     17.28915300      1
C          15.61082700      0.74357800     17.89351000      1
H          15.65169600      1.17655900     18.91130300      1
H          15.13596600     -0.24666300     18.01835800      1
S          14.49118100      1.77378000     16.89551700      1
O          13.67043100      2.49480700     17.85250200      1
O          15.34927800      2.61664200     15.99578500      1
O          13.79431200      0.77602500     16.01754000      1
P          12.80460300      2.67079200     13.28535600      2
O          13.71264700      1.96825900     12.37474600      2
O          13.52627600      3.85527800     14.08305200      2
H          14.18185200      3.47752700     14.79346400      2
O          11.68650000      3.46865100     12.47775300      2
H          11.09317700      3.94721600     13.17554100      2
O          11.97820800      1.81379300     14.31221300      2
H          12.66056200      1.28737200     14.96782900			2

