%chk=TMAPS_PA_H2O_1.chk
%nproc=16
%mem=80000MB
#p M062X/6-311+G(2d,p) nosymm em=GD3 counterpoise=3

Title Card Required

0 1
C           5.66853500     11.06564500      9.31372000       1
H           5.03894900     11.77910600      9.86178800       1
H           6.21919500     11.59882800      8.52307500       1
H           6.44556700     10.68945200     10.02788700       1
C           4.37000800      9.08690300      9.92644500       1
H           3.82358700      9.74144100     10.63554700       1
H           5.28425300      8.72990500     10.48065100       1
C           5.70155200      9.11036900      7.81140200       1
H           6.60546700      9.65004400      7.48435400       1
H           6.08074800      8.17968300      8.30416500       1
H           5.13972400      8.77357800      6.92609000       1
C           3.69342400     10.50074500      8.00295000       1
H           4.03514600     11.16598000      7.19174200       1
H           3.08802000      9.69791900      7.54196400       1
H           3.03188500     11.07847100      8.66799300       1
C           3.49256600      7.90281100      9.50296600       1
H           3.84186500      7.46499100      8.53932100       1
H           2.45708200      8.24421100      9.30625500       1
C           3.46814900      6.81887500     10.57309700       1
H           2.71455400      6.05151600     10.31617000       1
H           3.15305000      7.22645200     11.54870700       1
N           4.86056200      9.92605000      8.75446700       1
S           5.06644000      5.96490100     10.81601900       1
O           5.78144400      6.11412900      9.49704700       1
O           5.74224100      6.80457800     11.84213600       1
O           4.73014700      4.60229700     11.18674700       1
P           8.57805000      8.12373000     10.29783500       2
O           7.83369800      9.24321400      9.70279500       2
O           8.48333300      6.76252600      9.48884400       2
H           7.46482800      6.47028100      9.43657800       2
O          10.14001500      8.44388400     10.29120000       2
H          10.61663300      7.63286700     10.71908500       2
O           8.27449300      7.80558100     11.81318900       2
H           7.27872000      7.40869800     11.89023200       2
O           5.16010300      6.34339800      6.85671900       3
H           5.39598400      6.20649400      7.80837400       3
H           5.49998600      5.57045500      6.42245900       3

