%mem=50GB
%nprocshared=24
#p opt freq b3lyp/6-311+g(2d,p) em=gd3bj

Title Card Required

0 1
 C                 -2.30522800   -0.84607600   -0.96379700
 H                 -3.01168600   -1.48295200   -0.43425000
 H                 -2.84154600   -0.13476800   -1.58941700
 H                 -1.63881300   -1.45287200   -1.57248900
 C                 -2.36519500    0.71196800    0.92111600
 H                 -3.03700600    0.04447200    1.45776900
 H                 -1.75302400    1.26156500    1.63064600
 H                 -2.93909200    1.40779000    0.31116600
 C                 -0.72544200   -1.11643500    0.87048600
 H                 -0.06490700   -1.68326300    0.21503100
 H                 -0.10651000   -0.60873900    1.60307600
 H                 -1.46727300   -1.74593200    1.35970600
 C                 -0.53903900    0.83089700   -0.75955100
 H                 -1.21674300    1.51065400   -1.27771500
 H                 -0.03784100    0.17616400   -1.47289100
 C                  0.52248000    1.58673700    0.05740500
 H                  0.37679300    1.44023900    1.13109200
 H                  0.40138900    2.65865700   -0.12012700
 C                  1.95011400    1.12517100   -0.29714300
 H                  2.66224900    1.65397300    0.33714800
 H                  2.16092800    1.35034700   -1.34544500
 N                 -1.47404100   -0.09875600    0.03556000
 C                  2.02388100   -0.40203800   -0.04676100
 O                  2.30019700   -0.75883900    1.11488800
 O                  1.63254600   -1.12183400   -1.01148200

