%nproc=24
%mem=50GB
#p M062X/6-311+G(2d,p) nosymm em=GD3 counterpoise=4

Title Card Required

0 1
C          11.37682800     15.13363200     12.41050100			 1
C          12.00708400     15.98047700     11.49530800       1
C          12.63955300     13.92936800     11.00368900       1
N          11.78698800     13.84184200     12.09520100       1
H          11.45726500     12.97889100     12.52226800       1
H          10.70941800     15.35021100     13.21720700       1
H          11.96735600     17.04848700     11.40931300       1
H          13.11935700     13.07617100     10.54176200       1
N          12.77794300     15.21850300     10.63049400       1
O          11.01567900     12.23100500      8.97854400       2
H          10.61860500     11.76011300      8.24560300       2
H          11.89643400     12.50788800      8.63744600       2
O          10.29907300     15.00738200      8.69814300       3
H          10.41001700     14.06726400      8.89644500       3
H          10.75685200     15.46393100      9.41259900       3
O          11.07684200     11.42189100     11.67340800       4
H          10.47507800     10.69801300     11.81134100       4
H          11.03303600     11.63738800     10.72682000       4     

