%nproc=24
%mem=50GB
#p M062X/6-311+G(2d,p) nosymm em=GD3 counterpoise=4

Title Card Required

0 1
C           9.54909800     11.94159200     11.40795800      1
C           9.94576200     10.57099800     11.57160500      1
C          11.25803800     10.26035800     11.94457100      1
C          12.13145900     11.31325200     12.14934900      1
C          11.73071300     12.65917900     11.98990900      1
C          10.44275000     12.99570800     11.61504900      1
H          11.56274300      9.22186800     12.05753000      1
H          13.16078400     11.11029700     12.44314900      1
H          12.46331500     13.44570800     12.16967600      1
H          10.12339400     14.02710100     11.47977600      1
H           7.66445500     12.73157900     10.76455900      1
C           7.83993400     10.56747100     10.94119800      1
H           6.85648000     10.24461600     10.62577500      1
N           8.20656800     11.91167800     11.02453500      1
N           8.85117800      9.75210200     11.27836300      1
O          11.80003600     11.64312400      8.70156000      2
H          11.77757100     11.74231600      9.65856900      2
H          11.05075800     12.16126800      8.37782600      2
O           9.37141300     12.77951100      7.69817400      3
H           9.41234800     12.89963500      6.74985400      3
H           9.05899500     11.85917400      7.81793100      3
O           8.03245300     14.18574900      9.75806000      4
H           8.53968500     13.77879700      9.03609500      4
H           7.47396800     14.83997200      9.34887300      4

