%nproc=24
%mem=50GB
#p M062X/6-311+G(2d,p) nosymm em=GD3 counterpoise=2

Title Card Required

0 1
C           8.88920600      8.45695200      9.84495900         1
C           8.05744300      9.24734000      9.05393100         1
C           7.88437900     10.60138700      9.38389200         1
C           8.55709000     11.12065400     10.48537800         1
C           9.38745300     10.30142400     11.25176500         1
H           7.24730500     11.24268100      8.76278000         1
H           9.06967100      7.39916600      9.60167800         1
H           8.49553900     12.18851300     10.72002700         1
H           9.95344800     10.69811900     12.10792600         1
C           7.39923400      8.66343100      7.85864500         1
H           7.91258700      7.75854900      7.49095900         1
H           6.35091700      8.39940500      8.05026800         1
H           7.40757100      9.37413500      7.00781400         1
N           9.52682900      8.98454900     10.93405300         1
C          10.37487100      8.09466500     11.76297900         1
H           9.83964600      7.90991000     12.72400400         1
H          10.47454200      7.10597200     11.25131800         1
C          11.78053800      8.65137300     12.04483600         1
H          11.72719700      9.65834800     12.51240900         1
H          12.26303600      8.00116300     12.80433500         1
C          12.65335100      8.71686600     10.79782300         1
H          13.71749100      8.86453400     11.06953300         1
H          12.62264200      7.77410100     10.22078900         1
C          12.26214100      9.88082500      9.87894700         1
O          11.62840700     10.82775200     10.38617700         1
O          12.58938000      9.76751400      8.68267800         1
P          10.31850000     11.99564000      7.36000200         2
O           9.31057600     10.93132400      7.23832300         2
O           9.91719300     13.23394300      6.43817100         2
H          10.65410600     13.94906600      6.55396100         2
O          10.41643700     12.63718400      8.81061900         2
H          10.96794600     11.96903900      9.43950900         2
O          11.79161200     11.64011700      6.91351200         2
H          12.17407300     10.90197600      7.60103100         2 





