%mem=50GB
%nprocshared=24
#p M052X/6-31G* scrf=(smd,solvent=water)

Title Card Required

0 1
 C                  2.01202500   -0.61610000    1.00653100
 C                  0.93371700   -1.43818800    0.95160600
 C                  0.99196500   -0.27021000   -0.91867700
 N                  2.03145200    0.10281400   -0.17355900
 H                  2.76172700   -0.47939900    1.76558500
 H                  0.55190300   -2.15270300    1.65896900
 H                  0.74484000    0.11928200   -1.89078100
 C                  3.01983100    1.11450800   -0.53941000
 H                  2.76744700    1.50603800   -1.52103000
 H                  2.99931800    1.91784400    0.19436600
 H                  4.00891600    0.66163500   -0.56417700
 N                  0.31667700   -1.21534100   -0.26345400
 C                 -0.95681900   -1.80746900   -0.69763000
 H                 -0.91580000   -2.86603500   -0.44651300
 H                 -0.99298100   -1.71250600   -1.78183600
 C                 -2.16793000   -1.14420000   -0.05163900
 H                 -3.03823600   -1.71445900   -0.38538500
 H                 -2.11168400   -1.25339700    1.03307700
 C                 -2.35248000    0.32530400   -0.43005600
 H                 -3.37445100    0.62519400   -0.17550600
 H                 -2.24667300    0.45579800   -1.50884100
 C                 -1.44217900    1.33054300    0.28758500
 O                 -1.04523700    2.33229900   -0.37834000
 O                 -1.18226300    1.13211000    1.50725300

