%chk=PA.chk
%nprocshared=16
%mem=50GB
#p 6-311+g(2d,p) nosymm em=gd3 m062x

Title Card Required

0 1
 P                  6.32953400   12.86152600   12.47149200
 O                  7.10412300   11.63431900   12.25567300
 O                  4.76356600   12.69224300   12.26888300
 H                  4.56121200   12.59894700   11.22060600
 O                  6.46135900   13.35025300   13.98321500
 H                  5.90512500   14.21653800   14.07041100
 O                  6.76535700   14.13394600   11.63288400
 H                  6.47287700   13.99227700   10.61833200

