memory 100 GB

molecule dimer {
0 1
P      5.38300000    5.28300000    5.08400000
O      5.40100000    6.71400000    4.82900000
O      5.56900000    4.81000000    6.59700000
H      6.13700000    5.50300000    7.11100000
O      4.07800000    4.45600000    4.67700000
H      3.37700000    4.57200000    5.41700000
O      6.50300000    4.52200000    4.25500000
H      6.38300000    3.50900000    4.39100000
--
0 1
O      7.15700000    6.91300000    7.81100000
H      6.63800000    7.67600000    7.53500000
H      7.94500000    6.94300000    7.26100000
}

set {
    scf_type DF
    freeze_core True
    basis aug-cc-pVTZ
}

energy('sapt2+(3)dmp2')
