%mem=50GB
%nprocshared=24
#p opt freq b3lyp/6-311+g(2d,p) scrf=(smd,solvent=water) em=gd3bj

Title Card Required

0 1
 C                  2.48743900   -0.95947300    1.17550600
 H                  3.54015200   -1.11333300    0.95000200
 H                  2.37704800   -0.44025000    2.12486400
 H                  1.96421100   -1.91243500    1.20309000
 C                  2.62093900    1.19596200    0.04175300
 H                  3.67798200    0.98535500   -0.10529000
 H                  2.24622300    1.78929100   -0.78666900
 H                  2.46774500    1.71728900    0.98414700
 C                  2.04012800   -0.82353600   -1.21979700
 H                  1.46192900   -1.74411900   -1.18593700
 H                  1.68676100   -0.18286500   -2.02195600
 H                  3.09541200   -1.04502200   -1.36309500
 C                  0.41561400    0.09939000    0.43231500
 H                  0.41001400    0.57655500    1.41226800
 H                 -0.00664700   -0.90013800    0.52965600
 C                 -0.38391500    0.92250800   -0.56623800
 H                 -0.40050700    0.43637000   -1.54160200
 H                  0.06260600    1.91014700   -0.69118800
 C                 -1.81900800    1.09657100   -0.06246600
 H                 -2.35408700    1.76409900   -0.74567000
 H                 -1.82644500    1.58123400    0.91607500
 N                  1.88510800   -0.11094900    0.09169700
 C                 -2.65441000   -0.18851900    0.01966300
 O                 -2.40090200   -1.12426100   -0.79028400
 O                 -3.57895600   -0.21360900    0.88465900

