%nproc=24
%mem=50GB
#p M062X/6-311+G(2d,p) nosymm em=GD3 counterpoise=2

Title Card Required

0 1
C          18.19976600      1.98230000      8.65759300                   1
H          18.92187400      2.75855500      8.36637900                   1
H          17.26509700      2.18161100      8.06905900                   1
H          18.58232700      1.00127900      8.34704800                   1
C          16.86187400      0.96275000     10.43952100                   1
H          17.21177200     -0.00483100     10.03022100                   1
H          15.92905700      1.22507300      9.85033900                   1
C          17.41987500      3.40072700     10.48257700                   1
H          17.11696300      3.48379900     11.55701200                   1
H          18.16388000      4.16945700     10.25510600                   1
H          16.47594800      3.64793100      9.94080300                   1
C          19.17418300      1.74341900     10.88261400                   1
H          19.97487300      2.44253700     10.59094100                   1
H          19.01940100      1.85544200     11.97187600                   1
H          19.52710600      0.71695700     10.69628400                   1
C          16.52815200      0.82426100     11.93342600                   1
H          16.95728800      1.66115700     12.52893900                   1
H          17.00412700     -0.09165300     12.33627000                   1
C          15.02523800      0.76495400     12.18180700                   1
H          14.81292800      0.55849100     13.24307300                   1
H          14.54541800     -0.04452200     11.61232800                   1
N          17.90445500      2.02751400     10.13135600                   1
S          14.19912300      2.34823900     11.73963400                   1
O          15.18496500      3.36889300     12.16199200                   1
O          14.16003800      2.23892200     10.24150100                   1
O          12.90793200      2.33450300     12.41158600                   1
O          15.37078200      2.80628200      7.97970100                   2
H          14.87192000      2.63839300      8.84066900                   2
H          14.68365800      3.00756100      7.36036700                   2

                                           
                                           
                                           