%chk=MPyPS_PA_1.chk
%nproc=16
%mem=80000MB
#p M062X/6-311+G(2d,p) nosymm em=GD3 counterpoise=2

Title Card Required

0 1
C          13.80842300      5.54305100      8.39559000       1
C          14.75193800      5.59621200      7.37844900       1
C          14.79937500      6.70813600      6.53243100       1
C          13.83050700      7.69854600      6.65493900       1
C          12.83949900      7.57315100      7.64749000       1
H          15.60622400      6.80529300      5.80426200       1
H          13.80114300      4.72558400      9.13079200       1
H          15.49996600      4.80464600      7.29674500       1
H          12.02130700      8.30901100      7.71814800       1
C          13.84141300      8.93352800      5.83389700       1
H          14.62126500      8.93671100      5.06285900       1
H          12.88203100      9.13152100      5.33979000       1
H          14.04424500      9.80732400      6.49955000       1
N          12.87626300      6.54143400      8.52790100       1
C          11.94494000      6.46539200      9.68022500       1
H          11.07983000      5.83393200      9.37467500       1
H          12.47461800      5.93143800     10.51596800       1
C          11.44360200      7.81877100     10.21905200       1
H          11.10057500      8.48500800      9.40073800       1
H          10.51779200      7.61723200     10.80463300       1
C          12.45151100      8.51969900     11.11840600       1
H          13.16616900      7.80386400     11.56785700       1
H          11.94233800      8.98772100     11.98074300       1
S          13.39932500      9.83572900     10.29036900       1
O          14.56094600     10.05292400     11.18219700       1
O          12.45779600     10.93259300     10.10402200       1
O          13.83530600      9.21305800      8.97929700       1
P          16.21329800      7.13626000     10.24033000       2
O          15.07704000      6.25855400     10.55885900       2
O          17.54243700      6.25867400     10.10544300       2
H          18.32619000      6.91316800      9.96197200       2
O          16.12089600      7.85037900      8.82733500       2
H          15.23834400      8.47342300      8.82049500       2
O          16.60925700      8.23103100     11.30581400       2
H          15.85421800      8.99701100     11.30873500			 2

