%nproc=24
%mem=50GB
#p M062X/6-311+G(2d,p) nosymm em=GD3 counterpoise=4

Title Card Required

0 1
P          11.42869500     10.16713500      7.14017500         1
O          10.52173600      9.03070800      6.94677600         1
O          12.04650400     10.25307300      8.60625000         1
H          11.42050000     10.84970900      9.21807500         1
O          12.71269500     10.01824600      6.21151000         1
H          13.31082400     10.84374200      6.38275900         1
O          10.87388000     11.61033600      6.80176500         1
H          10.08131300     11.82861300      7.48409000         1
O          11.07164400     12.19605700     12.77657800         2
H          10.84560000     12.00560200     11.83791100         2
H          11.48911500     13.04810900     12.75981100         2 
O           5.56548300      8.63476200      9.15258800         3
H           6.22490000      9.00626100      8.53779900         3
H           4.78471500      8.50229900      8.62412800         3  
O           7.59527100      9.69270100      7.54973300         4
H           7.91282300     10.56856900      7.84512200         4
H           8.37858900      9.30599500      7.14133500         4



