%nprocshared=24
%mem=50GB
#p opt freq b3lyp/6-311+g(2d,p) em=gd3bj

Title Card Required

0 1
 C                 -1.14023200   -0.72016100   -0.00019800
 C                 -1.19427800    0.67066600   -0.00012100
 C                  0.00000900    1.38075200    0.00009000
 C                  1.19428600    0.67065300    0.00021000
 C                  1.14022400   -0.72017300    0.00010000
 N                 -0.00000900   -1.41487800   -0.00009200
 H                  0.00000700    2.46446500    0.00016900
 H                 -2.05540100   -1.30454100   -0.00036700
 H                 -2.15056000    1.17920300   -0.00022400
 H                  2.15058100    1.17916700    0.00038000
 H                  2.05538300   -1.30456600    0.00020200

