%nproc=24
%mem=50GB
#p M062X/6-311+G(2d,p) nosymm em=GD3 counterpoise=5

Title Card Required

0 1
C           4.48369000      5.43284400     11.48947500			 1
C           5.41592000      4.97754300     12.42329500       1
C           4.71533900      6.94020000     13.13345700       1
N           4.04300100      6.67472000     11.94995600       1
H           3.43236900      7.30598500     11.43784000       1
H           4.10814900      4.98380200     10.59537400       1
H           5.97839700      4.06489600     12.44175500       1
H           4.57642500      7.83688600     13.72087200       1
N           5.54735600      5.92048100     13.43116800       1
O           3.67243900      8.51085500     10.12042500       2
H           3.93197300      9.39889500     10.47556700       2
H           3.11131000      8.69084500      9.37243200       2
O           4.41556300     10.89724600     11.10308100       3
H           4.95702300     10.52220500     11.82902100       3
H           5.05604200     11.37714500     10.57377300       3
O           6.34072300      7.36789000      9.86927400       4
H           6.26271900      6.53465700     10.34283200       4
H           5.46630900      7.77544500      9.94487100       4
O           7.50021700      6.71841400     15.13437000       5
H           6.75514500      6.98626200     15.67244100       5
H           7.07432400      6.15854500     14.43277400       5   

