%nproc=22
%mem=100GB
#p M062X/6-311+G(2d,p) nosymm em=GD3 counterpoise=6

Title Card Required

0 1
C          11.28525400     10.97493000     11.62836500        1
C          11.98453400      9.74335200     11.38132900        1
C          13.24933500      9.76015700     10.78485500        1
C          13.78088800     10.99132800     10.44443200        1
C          13.08880700     12.19678800     10.69304600        1
C          11.83951000     12.21143800     11.28874700        1
H          13.78582200      8.82916400     10.61293900        1
H          14.76317000     11.04446600      9.97484100        1
H          13.56201000     13.13723900     10.40879500        1
H          11.30915300     13.13764500     11.49424400        1
H           9.31048200     11.25843900     12.43224800        1
C          10.05220300      9.22122600     12.28919300        1
H           9.20605100      8.66477400     12.67704400        1
N          10.07142000     10.61634900     12.21879600        1
N          11.18512900      8.68222900     11.81439400        1
P           9.33564300      7.02224300      9.42653500        2
O           8.62017000      8.06910200     10.17172300        2
O          10.71469600      6.53169200     10.03422400        2
H          10.95586100      7.11598100     10.88370000        2
O           8.43896500      5.71431400      9.32470500        2
H           8.97827600      5.01041700      8.79349200        2
O           9.65882500      7.33079000      7.90746200        2
H          10.52746100      7.92169100      7.84716800        2
O          11.87036000      9.04756600      7.75374900        3
H          12.40577400      8.95960100      8.54457100        3
H          11.46318900      9.93151900      7.83167600        3
O           8.07137000     10.66619200      9.18780000        4
H           8.26703800      9.75984300      9.51526700        4
H           7.47084300     10.53223600      8.45507600        4
O           8.02295300     12.17028200     11.57041400        5
H           7.99825700     11.72363400     10.70748000        5
H           7.11486800     12.33994200     11.80241500        5
O          10.62587100     11.48567000      8.27213200        6
H           9.73085100     11.23548000      8.55006500        6
H          11.01498000     11.91229400      9.03709300        6


