memory 100 GB

molecule dimer {
0 1
C     13.03400000   10.81700000    8.59200000
C     12.84400000   12.16900000    8.89800000
C     12.16500000   12.49700000   10.07100000
C     11.70000000   11.47700000   10.89800000
C     11.93200000   10.14700000   10.52200000
N     12.58700000    9.82800000    9.39000000
H     12.00100000   13.54100000   10.33700000
H     13.55900000   10.49800000    7.68400000
H     13.21700000   12.94300000    8.23400000
H     11.16800000   11.70200000   11.81800000
H     11.58600000    9.30200000   11.13800000
--
0 1
P     12.14100000    6.12600000    9.78900000
O     11.72300000    6.67400000   11.06900000
O     10.89500000    5.64000000    8.92900000
H     11.24200000    5.22100000    8.05700000
O     13.00800000    7.04400000    8.82400000
H     12.80900000    8.06000000    9.01900000
O     13.03400000    4.79500000    9.81400000
H     14.01500000    5.06900000    9.91500000
}

set {
    scf_type DF
    freeze_core True
    basis aug-cc-pVTZ
}

energy('sapt2+(3)dmp2')
