%nproc=24
%mem=50GB
#p M062X/6-311+G(2d,p) nosymm em=GD3 counterpoise=3

Title Card Required

0 1
O           6.67216400      9.02304200      7.14036400      1
H           6.18033200      8.62141300      6.43312500      1
H           7.17017800      9.77239500      6.71437600      1     
O           8.20170500     10.86732800      5.94532300      2
H           8.35715000     11.58384000      6.60916000      2
H           9.00745800     10.34265600      6.01278100      2
O           6.62264700      9.28950200     10.09018900      3
H           6.49961900      9.18369400      9.14202800      3
H           7.22572700     10.05638300     10.15051000      3     






