%mem=50GB
%nprocshared=24
#p M052X/6-31G* scrf=(smd,solvent=water)

Title Card Required

0 1
 C                 -2.46845500    0.04321300    1.17568100
 C                 -1.57406800    1.06140900    1.12226900
 C                 -1.72919500    0.18972700   -0.89715400
 N                 -2.55535500   -0.48449100   -0.09995500
 H                 -3.04754600   -0.34997000    1.99232700
 H                 -1.22221100    1.73021700    1.88692200
 H                 -1.57840300    0.00180700   -1.94496700
 C                 -3.38345800   -1.62034400   -0.49705200
 H                 -3.27883500   -1.76816300   -1.56848700
 H                 -3.05254600   -2.51184700    0.03239900
 H                 -4.42297600   -1.41129800   -0.25301600
 N                 -1.12973900    1.14102900   -0.18391300
 C                 -0.13014500    2.08721900   -0.69788100
 H                 -0.54819900    3.08582900   -0.57693500
 H                 -0.02714900    1.88802200   -1.76311400
 C                  1.21637700    2.01696800    0.01436700
 H                  1.71634600    2.96457000   -0.20023100
 H                  1.06910100    1.98931800    1.09508200
 C                  2.18474200    0.92159600   -0.41546800
 H                  3.16057900    1.11319300    0.03071000
 H                  2.30558300    0.88914800   -1.49911600
 S                  1.79620900   -0.77381000    0.08109900
 O                  3.07007100   -1.51731600   -0.08046600
 O                  1.34718900   -0.71361600    1.49220800
 O                  0.74371400   -1.27336000   -0.83307300

