%nproc=24
%mem=50GB
#p M062X/6-311+G(2d,p) nosymm em=GD3 counterpoise=4

Title Card Required

0 1
O          12.63055400      3.77484700      7.16328000         1
H          13.35526500      4.43895900      7.22028400         1
H          12.00927000      4.16888200      6.55667300         1 
O          13.97203800     10.46302900     10.99969100         2
H          13.86898800      9.52369000     11.24225500         2
H          13.07828900     10.75450100     10.82049300         2  
O          11.64174000      3.56315800      9.73458100         3
H          12.40923700      3.18788100     10.17331900         3
H          11.92195500      3.61870800      8.79544000         3
O          15.20242900      9.61978800      8.58330500         4
H          14.61543800      8.85910000      8.49820000         4
H          14.82947700     10.07934000      9.35231100         4 



