%nproc=24
%mem=100GB
#p M062X/6-311+G(2d,p) nosymm em=GD3 counterpoise=5

Title Card Required

0 1
C           7.41258600     10.23683700      9.45811700         1
C           7.58710900      9.73109100     10.74351100         1
C           8.84572400     11.58530100     10.54813000         1
N           8.18827500     11.38863900      9.36459300         1
H           6.82973000      9.84552500      8.63585900         1
H           7.17308800      8.84001000     11.19588500         1
H           9.56034100     12.38271400     10.76242100         1
C           8.31234100     12.24919800      8.20266300         1
H           9.38330500     12.45541500      7.97307600         1
H           7.89599400     11.75541600      7.29639000         1
H           7.78720800     13.20604600      8.36261600         1
N           8.46987600     10.58324900     11.40422100         1
C           8.94365100     10.43245100     12.78091500         1
H           8.05665900     10.44088800     13.45832600         1
H           9.57214100     11.31989500     13.05412400         1
C           9.75041300      9.13972500     12.98311700         1
H           9.77793400      8.90669500     14.06768300         1
H           9.23012900      8.27212700     12.51698600         1
C          11.17625300      9.23568600     12.44773100         1
H          11.77066000      8.36007800     12.78005900         1
H          11.69618800     10.13116600     12.83778600         1
C          11.15525100      9.25409000     10.92250200         1
O          11.26060700     10.37707900     10.36344400         1
O          11.00817900      8.17735000     10.32425700         1
P          10.33865900      9.34093200      7.10170600         2
O           8.87453500      9.45210300      7.21265100         2
O          10.99060200      8.01993400      7.66069800         2
H          11.02540200      8.07778700      8.73810800         2
O          10.74381400      9.35239900      5.56065900         2
H          11.77431600      9.28494600      5.51652600         2
O          11.12161800     10.58438500      7.69636900         2
H          11.21978700     10.46820200      8.75481700         2
O           8.47089800      6.87604600     10.71879500         3
H           9.36843500      7.19940300     10.56458800         3
H           8.02307600      6.96991300      9.87180700         3   
O          11.31548600     12.54495200     11.88876900         4
H          12.13007300     13.01232200     11.75816100         4
H          11.39505600     11.72023500     11.33771500         4
O           7.17373700      7.35374500      8.21546200         5
H           7.34131700      6.58119600      7.67652800         5
H           7.75956900      8.03484200      7.84224900         5

