%chk=Py.chk
%nprocshared=10
%mem=20GB
#p opt freq B3LYP/6-311G** em=GD3BJ

Title Card Required

0 1
 C                 -2.77071184   -0.99232129    0.00000000
 C                 -1.36383384   -0.99232129    0.00000000
 C                 -0.69714284    0.23428571    0.00000000
 C                 -1.45121584    1.40907271   -0.00024100
 C                 -2.85441784    1.30626771   -0.00038200
 N                 -3.51394784    0.13131671   -0.00019700
 H                  0.40140116    0.27406171   -0.00095000
 H                 -3.33625884   -1.94114229    0.00012200
 H                 -0.80910184   -1.93922229    0.00026400
 H                 -0.96717984    2.39399671   -0.00034200
 H                 -3.48776684    2.21133071   -0.00046300
 
 

