%nproc=24
%mem=50GB
#p M062X/6-311+G(2d,p) nosymm em=GD3 counterpoise=3

Title Card Required

0 1
P          11.55887300      8.70956700     10.47477200       1
O          11.54232500     10.18331500     10.68773400       1
O          12.77813000      8.22174600      9.56362300       1
H          12.92472000      8.96529300      8.85133400       1
O          11.75424900      7.83501600     11.75754500       1
H          10.79598600      7.88434100     12.31109800       1
O          10.30034900      8.22554800      9.64994400       1
H           9.40842200      8.37729600     10.24515500			 1
O          13.60554200     11.90661200     10.13698700       2
H          12.85494600     11.31968700     10.40536100       2
H          14.29888300     11.69080300     10.75656000       2
O          13.51943200     10.49010500      7.71540500       3
H          14.41656500     10.35934700      7.42085000       3
H          13.59279500     11.04723000      8.51414000       3 


