%nproc=24
%mem=50GB
#p M062X/6-311+G(2d,p) nosymm em=GD3 counterpoise=2

Title Card Required

0 1
O          16.85167800     13.42629900     10.79038300         1
H          16.80323100     13.64600700      9.82242700         1
H          17.20893100     14.20178500     11.20260100         1 
O          15.30982000     11.37527900      5.11147900         2
H          15.16866000     12.27278200      5.46156500         2
H          16.17137500     11.45137700      4.68664600         2  




