%nproc=22
%mem=100GB
#p M062X/6-311+G(2d,p) nosymm em=GD3 counterpoise=6

Title Card Required

0 1    
C          10.91837700     11.57016200     10.31976900         1
H          10.57197600     11.78260200      9.28607500         1
H          11.38168500     12.49488400     10.69821600         1
H          11.71031500     10.80011200     10.22360300         1
C          10.36341400     10.13110600     12.21308500         1
H           9.60786800      9.84637000     12.96624100         1
H          10.68316200      9.18732000     11.71490500         1
H          11.23839600     10.55567000     12.72564400         1
C           9.19300000     12.25825300     11.93517300         1
H           9.94525000     12.78405300     12.54524900         1
H           8.78232000     13.00299400     11.22381900         1
H           8.37310600     11.92757100     12.59236000         1
C           8.72361400     10.37590600     10.41026200         1
H           7.97257700      9.95837200     11.12516800         1
H           9.20616600      9.48678500      9.92558200         1
C           8.01902300     11.25764300      9.37271500         1
H           8.64200500     12.13395400      9.08436000         1
H           7.09282000     11.69129100      9.79518200         1
C           7.68635400     10.45094600      8.11695400         1
H           7.22317200     11.09849200      7.34817100         1
H           6.95523700      9.64980200      8.33177000         1
N           9.79996700     11.09693200     11.20396000         1
C           8.97106100      9.84948700      7.54449200         1
O           9.88654200     10.64434500      7.22597600         1
O           9.05548100      8.61152300      7.48145000         1
P          12.33150400      8.36617300      8.37773200         2
O          11.80419100      8.15304800      9.73152500         2
O          13.83543800      7.86209400      8.27414400         2
H          14.15245700      8.05022600      7.30706800         2
O          11.58197800      7.62237500      7.19975600         2
H          10.56782600      7.96910300      7.19080700         2
O          12.42256200      9.90032200      7.96192900         2
H          11.48941000     10.19761100      7.56885900         2
O           8.97167600      6.98663600      9.78370100         3
H           8.81678900      7.45535800      8.93864400         3
H           9.93684100      6.96581000      9.84246500         3
O           8.19388700      8.09872600     12.12015200         4
H           7.66817700      7.43888700     12.55892200         4
H           8.45989700      7.67729300     11.26944600         4 
O          10.04712000     14.27124000      9.62855900         5
H           9.92676700     13.92093600      8.71920200         5
H          10.03113100     15.21642800      9.52470900         5 
O           9.66142500     13.26040300      7.12080800         6
H          10.26452900     13.48418400      6.42127800         6
H           9.67351800     12.25659700      7.14013500         6 


