%nproc=24
%mem=50GB
#p M062X/6-311+G(2d,p) nosymm em=GD3 counterpoise=2

Title Card Required

0 1
C           2.06337700      6.88450300     15.73037300                  1
C           3.00015300      6.95503100     16.81851500                  1
C           3.08852200      5.90498100     17.73878500                  1
C           2.25076900      4.81989700     17.55641300                  1
C           1.33363300      4.75925100     16.48428200                  1
C           1.22268800      5.78115900     15.55843200                  1
H           3.79804600      5.96021800     18.56142100                  1
H           2.29133500      3.98404700     18.25277600                  1
H           0.69967000      3.87810900     16.39206700                  1
H           0.51915000      5.73474800     14.73595500                  1
H           1.71156400      8.33156800     14.18172500                  1
C           3.22583500      8.80471800     15.66327100                  1
H           3.55234000      9.77221600     15.31297700                  1
N           2.22400100      8.06898700     15.01056900                  1
N           3.69835200      8.16386200     16.73497900                  1
O           0.79899300      8.79936300     12.70237700                  2
H          -0.13187900      9.01273000     12.76576000                  2
H           0.91344900      8.32461800     11.87933800                  2

                                           
                                           
                                           