%mem=50GB
%nprocshared=24
#p opt freq b3lyp/6-311+g(2d,p) scrf=(smd,solvent=water) em=gd3bj

Title Card Required

0 1
 C                 -3.12297600   -1.25028600   -0.74101900
 H                 -3.09367500   -1.04004300   -1.80765000
 H                 -4.15256100   -1.34041900   -0.40287500
 H                 -2.57165600   -2.16124400   -0.51970900
 C                 -1.03938100   -0.00922800   -0.49596700
 H                 -1.10060300    0.13371000   -1.57468100
 H                 -0.59808000   -0.98286400   -0.29965200
 C                 -2.52741400   -0.39082500    1.46397300
 H                 -2.13200500    0.46115900    2.00858800
 H                 -3.56519000   -0.55597500    1.74399000
 H                 -1.93504500   -1.28030100    1.66645800
 C                 -3.24465900    1.14704700   -0.30681200
 H                 -4.28498500    0.98147100   -0.03636900
 H                 -2.84075600    1.96724700    0.27886400
 H                 -3.16057500    1.36092800   -1.37006700
 C                 -0.21519400    1.10187700    0.13889800
 H                 -0.13594900    0.96956300    1.21783500
 H                 -0.68546700    2.06988500   -0.04006900
 C                  1.18810200    1.17974700   -0.46075100
 H                  1.68868400    2.08599400   -0.12015700
 H                  1.17198500    1.18282900   -1.55179600
 N                 -2.47718800   -0.10760600   -0.00904200
 S                  2.30578200   -0.16324500    0.01682200
 O                  2.27346800   -0.22320900    1.49888300
 O                  1.79572900   -1.40647200   -0.61035900
 O                  3.63240300    0.23508300   -0.51208600

