%nproc=24
%mem=50GB
#p M062X/6-311+G(2d,p) nosymm em=GD3 counterpoise=2

Title Card Required

0 1
C           9.14547900      1.37950400     16.78606300         1
C           9.37376600      0.93320000     18.08456900         1
C           9.93245000      3.11143400     17.98871800         1
N           9.47998400      2.73095500     16.75541400         1
H           8.82103500      0.83391300     15.91337200         1
H           9.25378900     -0.05286600     18.50803000         1
H          10.30897300      4.10043700     18.26056400         1
C           9.37809400      3.60501700     15.60153600         1
H          10.23428800      4.31460200     15.55758100         1
H           9.41891900      3.01663500     14.65711800         1
H           8.43526200      4.17796100     15.62510900         1
N           9.85488300      2.01952200     18.81363400         1
C          10.24129000      1.99191200     20.22467600         1
H           9.36813700      1.63269000     20.81895200         1
H          10.46049500      3.03608600     20.56934000         1
C          11.46173200      1.08904200     20.47334700         1
H          11.44392400      0.74989500     21.52894600         1
H          11.39342700      0.15681000     19.86583900         1
C          12.78493800      1.79409500     20.18588700         1
H          13.63107000      1.21743700     20.61055100         1
H          12.82553200      2.79534100     20.65314800         1
C          12.97784400      1.89942800     18.67413800         1
O          12.63867200      2.98126300     18.12882500         1
O          13.41952000      0.90682200     18.07661400         1
P          12.40190800      1.60851900     14.85628700         2
O          11.14924700      0.86263800     15.02316400         2
O          13.72841300      0.94257700     15.39495300         2
H          13.67009400      0.91334900     16.46812600         2
O          12.68979800      1.85508600     13.30798200         2
H          13.58755900      2.36202700     13.24123900         2
O          12.35780300      3.08731000     15.44550400         2
H          12.54636200      3.05472900     16.49010700         2


