%nproc=24
%mem=50GB
#p M062X/6-311+G(2d,p) nosymm em=GD3 counterpoise=2

Title Card Required

0 1
P          10.87657000     14.65174800     11.97968900       1
O          10.92749700     13.19635800     12.10782700       1
O          10.22075700     15.20661700     10.63263200       1
H          10.34629300     14.49813100      9.89099600       1
O          10.12244900     15.50603500     13.07766800       1
H           9.19689500     15.02733100     13.29028000       1
O          12.33720000     15.28948300     12.00587100       1
H          12.24236800     16.31308600     12.01891100       1
O          10.71145000     12.95588900      8.78141900       2
H          10.35151900     12.30705900      9.39688000       2
H          11.66401200     12.87830300      8.88369700       2







