%nproc=10
%mem=10GB
#p M062X/6-311+G(2d,p) nosymm em=GD3 counterpoise=2

Title Card Required

0 1
P           5.61802900      5.19317000      5.26186100         1
O           5.53891200      6.65657800      5.46631500         1
O           6.31291700      4.40192700      6.43033900         1
H           6.68784800      5.03517100      7.09585200         1
O           4.19464700      4.50280700      5.01601400         1
H           3.49179400      4.95317600      5.50189500         1
O           6.43100600      4.67723900      3.99379900         1
H           6.08866900      5.02772800      3.16175800         1
O           6.96289600      6.58559600      7.86040700         2
H           7.83953500      6.97826600      7.92881100         2
H           6.51375000      7.02834400      7.11295100         2


