%nproc=24
%mem=50GB
#p M062X/6-311+G(2d,p) nosymm em=GD3 counterpoise=3

Title Card Required

0 1
C           8.74139600     10.13731900     10.75097000			 1
C           8.60903200      8.74694200     10.79830300       1
C          10.39354400      9.17513800      9.58448100       1
N           9.86578000     10.39756300      9.97135400       1
H          10.30519400     11.31001300      9.83292000       1
H           8.14327100     10.91239000     11.17910600       1
H           7.86667500      8.14518500     11.28329200       1
H          11.29006800      9.06713400      8.99468800       1
N           9.63754300      8.16764000     10.07163000       1
O          11.17167400      6.08944300     10.82820200       2
H          10.33812200      6.52878400     10.50738200       2
H          11.82623900      6.34333300     10.17646100       2
O          11.97240200     11.93069500     10.10706800       3
H          12.12696600     12.57314900     10.79973300       3
H          12.34757600     11.10451500     10.46229100       3

