%nproc=24                                                  
%mem=50GB                                                  
#p M062X/6-311+G(2d,p) nosymm em=GD3 counterpoise=2        
                                                           
Title Card Required                                        
                                                           
0 1                    
C           8.80187400     19.05550900      7.39369600          1                          
C           8.53598700     18.95322600      6.02279100          1
C           9.60480700     18.76208900      5.14911200          1
C          10.89861500     18.67877200      5.66077100          1
C          11.07931200     18.79107700      7.04434400          1
N          10.04980500     18.97665000      7.89299800          1
H           9.43071700     18.67821200      4.07642100          1
H           8.00235700     19.20489700      8.12936600          1
H           7.51697300     19.02120500      5.65278300          1
H          11.75086700     18.52912100      5.00401400          1
H          12.07243100     18.73250300      7.50822600          1
O          10.92515900     19.50676500     10.42475700          2
H          10.49686900     18.94619800      9.74987000          2
H          10.95423200     20.36379200     10.01085100          2 

