%chk=MPyBA.chk
%mem=200GB
%nprocshared=22
#p opt freq b3lyp/6-311g(d,p) em=gd3bj

Title Card Required

0 1
 C                 -2.78269993   -1.20610591    0.04813174
 C                 -1.37735093   -1.14390169    0.06888078
 C                 -0.76684010    0.10738194    0.17187317
 C                 -1.57320364    1.24424865    0.24973576
 C                 -2.97023117    1.07981510    0.22109239
 H                  0.32872247    0.19564641    0.19014862
 H                 -3.30473693   -2.17622806   -0.03214969
 H                 -1.13422154    2.24672693    0.33157797
 H                 -3.64380935    1.95333894    0.28040965
 C                 -0.53968214   -2.43307885   -0.02018801
 H                 -0.77817544   -3.07111588    0.80499664
 H                 -0.75962290   -2.93869446   -0.93718251
 H                  0.50076834   -2.18515280    0.00973642
 N                 -3.57592627   -0.11971224    0.12231329
 C                 -4.40812457   -0.09628933   -1.08921358
 H                 -5.11356222    0.70541364   -1.02190785
 H                 -3.78513625    0.04788867   -1.94711698
 C                 -5.16128555   -1.43311247   -1.22056215
 H                 -4.45584723   -2.23481490   -1.28786729
 H                 -5.78427405   -1.57729062   -0.36265890
 C                 -6.03311234   -1.40857419   -2.48978078
 H                 -7.06112683   -1.52948711   -2.21873417
 H                 -5.90454157   -0.47295996   -2.99276743
 C                 -5.61041225   -2.55659661   -3.42517863
 O                 -6.14852680   -3.73380928   -3.29107143
 O                 -4.71634206   -2.34613333   -4.34698414

 1 2 1.5 7 1.0 14 1.5
 2 3 1.5 10 1.0
 3 4 1.5 6 1.0
 4 5 1.5 8 1.0
 5 9 1.0 14 1.5
 6
 7
 8
 9
 10 11 1.0 12 1.0 13 1.0
 11
 12
 13
 14 15 1.0
 15 16 1.0 17 1.0 18 1.0
 16
 17
 18 19 1.0 20 1.0 21 1.0
 19
 20
 21 22 1.0 23 1.0 24 1.0
 22
 23
 24 25 1.5 26 1.5
 25
 26

