%nproc=24
%mem=50GB
#p M062X/6-311+G(2d,p) nosymm em=GD3 counterpoise=2

Title Card Required

0 1
O          13.60554200     11.90661200     10.13698700       1
H          12.85494600     11.31968700     10.40536100       1
H          14.29888300     11.69080300     10.75656000       1
O          13.51943200     10.49010500      7.71540500       2
H          14.41656500     10.35934700      7.42085000       2
H          13.59279500     11.04723000      8.51414000       2 


