%chk=PA_PA.chk
%nproc=16
%mem=80000MB
#p M062X/6-311+G(2d,p) nosymm em=GD3 counterpoise=2

Title Card Required

0 1
P           4.80326000      6.25044300      4.59212100       1
O           5.15011300      5.02353000      5.29571900       1
O           3.84517200      7.16995000      5.46183100       1
H           3.56695200      7.98191100      4.89410500       1
O           5.97865600      7.18951100      4.07898000       1
H           6.76213100      7.15712100      4.75234200       1
O           3.94932300      6.10197400      3.24919300       1
H           4.56257400      5.72764100      2.51813300       1
P           8.49313500      5.73336600      6.87252800       2
O           8.14289300      6.96312900      6.17573600       2
O           7.31993400      4.79214100      7.38709400       2
H           6.53436100      4.82589900      6.71646000       2
O           9.44696100      4.81786700      5.99396300       2
H           9.73204200      4.00579300      6.55797800       2
O           9.35309800      5.87661000      8.21212500       2
H           8.73939800      6.23311600      8.95169400       2

