memory 4 GB

molecule dimer {
0 1
C      7.37700000   16.15399900   13.64700000
C      6.40200000   15.29300000   14.14800000
C      6.42500000   15.00100000   11.96500000
N      7.38800000   15.96600000   12.26200000
H      7.98100000   16.44100000   11.62100000
H      8.02400000   16.84400000   14.14300000
H      6.08200000   15.13200000   15.15900000
H      6.20600000   14.65000000   10.96400000
N      5.82900000   14.59300000   13.09600000
--
0 1
P      3.47000000   12.46600000   11.25300000
O      4.49900000   12.83800000   10.29400000
O      3.79000000   12.59300000   12.80200000
H      4.50600000   13.35300000   12.96700000
O      2.13200000   13.29100000   11.00800000
H      1.42400000   12.97400000   11.68300000
O      2.92000000   10.96200000   11.18600000
H      3.53700000   10.37100000   11.75100000
}

set {
    scf_type DF
    freeze_core True
    basis aug-cc-pVTZ
}

energy('sapt2+(3)dmp2')
