%nproc=24
%mem=50GB
#p M062X/6-311+G(2d,p) nosymm em=GD3 counterpoise=5

Title Card Required

0 1
C           8.17534500     10.46676900     11.16925500       1
C           9.07256300     10.40825200     12.23516100       1
C           9.83791500      9.26603400     12.44300400       1
C           9.70770000      8.18937900     11.55271300       1
C           8.82069200      8.29422100     10.48062000       1
H          10.54225600      9.21238600     13.28080500       1
H           7.55567100     11.36547200     10.99110400       1
H           9.18483800     11.28728700     12.87931400       1
H           8.75034400      7.49968400      9.72822400       1
C          10.52816200      6.96032400     11.69328300       1
H           9.92286100      6.05005800     11.77148000       1
H          11.20099600      6.83992000     10.81827600       1
H          11.19782600      6.99419900     12.56728700       1
N           8.04691900      9.40855600     10.31922000       1
C           7.07875700      9.49502000      9.19841200       1
H           6.21538700      8.83478000      9.44372300       1
H           6.67378300     10.54332200      9.14610400       1
C           7.65419000      9.11390700      7.82001900       1
H           8.24635500      8.17472900      7.88233100       1
H           6.79724400      8.86725600      7.15453100       1
C           8.48381700     10.21385200      7.16529000       1
H           7.88294700     11.13381700      7.02434000       1
H           8.79616500      9.90998500      6.14922400       1
S           9.94044200     10.61046600      8.14797500       1
O          10.93147700     11.29546900      7.32109400       1
O          10.36010000      9.30226200      8.72160600       1
O           9.36153400     11.50691400      9.21148500       1
O          12.71764000     12.87933100      8.87882500       2
H          12.04525800     13.16590500      9.51046900       2
H          12.20992700     12.42041300      8.17834500       2
O           6.99193000     12.91230100      9.49760300       3
H           7.19313600     13.32850300     10.34344800       3
H           7.85363400     12.54190800      9.23185000       3 
O          10.58533400     13.09786500     10.95596100       4
H          11.09302800     12.41998300     11.42137300       4
H          10.12283600     12.56715100     10.25020900       4
O           8.15789000     13.52611700     12.07271900       5
H           8.13764800     14.41870400     12.40106500       5
H           9.06952400     13.40995300     11.71002800       5     


