%nproc=24
%mem=50GB
#p M062X/6-311+G(2d,p) nosymm em=GD3 counterpoise=2

Title Card Required      

0 1
C          10.24996800     17.12096600      7.65018300         1
C           9.10033500     16.66487100      8.29453100         1
C           8.47381500     18.34317700      7.01651900         1
N           9.84775600     18.18529500      6.84093700         1
H          10.44373100     18.72139900      6.25183400         1
H          11.26391600     16.78577200      7.70510600         1
H           8.97745000     15.86286900      8.99777100         1
H           7.88175100     19.09138200      6.51646400         1
N           8.01698800     17.43123000      7.89099000         1
O           5.56570400     17.45613000      9.03507700         2
H           6.14029100     17.95707500      9.60764100         2
H           6.17830300     17.13984400      8.34295200         2

