%nprocshared=24
%mem=50GB
#p opt freq b3lyp/6-311+g(2d,p) scrf=(smd,solvent=water) em=gd3bj

Title Card Required

0 1
 C                  0.60413000    0.98243300   -0.00006900
 C                  1.14181300   -0.27357900   -0.00003300
 C                 -0.98838600   -0.53871100    0.00009800
 N                 -0.75802100    0.79626300    0.00003800
 H                 -1.46221800    1.52061400    0.00014000
 H                  1.05112400    1.96187200   -0.00013100
 H                  2.18436700   -0.54749200   -0.00007600
 H                 -1.98349800   -0.95310100    0.00017400
 N                  0.13871900   -1.22522800   -0.00004900

