%chk=BI.chk
%nprocshared=10
%mem=40000MB
#p opt freq B3LYP/6-311G** em=GD3BJ

Title Card Required

0 1
 C                  2.86215600   -1.62621200    0.73057400
 C                  1.45571500   -1.66630800    0.73233700
 C                  0.72534600   -0.47483900    0.72893200
 C                  1.42808800    0.71702100    0.72388000
 C                  2.83528600    0.73844300    0.72217000
 C                  3.57864400   -0.43005300    0.72545900
 H                 -0.35715600   -0.50142800    0.73018600
 H                  0.88872400    1.65626200    0.72109700
 H                  3.34942200    1.69189500    0.71808700
 H                  4.66161900   -0.41040100    0.72416200
 H                  4.18635400   -3.31041500    0.73554000
 C                  2.09298500   -3.69657400    0.73889100
 H                  2.12407700   -4.77680100    0.74212300
 N                  3.24589500   -2.95226100    0.73510000
 N                  1.01007400   -2.97954300    0.73717300

