%nproc=24
%mem=50GB
#p M062X/6-311+G(2d,p) nosymm em=GD3 counterpoise=5

Title Card Required

0 1
P           7.45247400      6.25896500     12.61172400       1
O           6.21466600      7.03569200     12.73602000       1
O           8.79831800      6.99917900     12.98280100       1
H           8.97250700      7.77343100     12.27406800       1
O           7.42509600      5.03745600     13.63811000       1
H           8.31155000      4.52126400     13.52164100       1
O           7.66661200      5.53269100     11.21865800       1
H           7.76953400      6.25537800     10.45449400       1
O           3.35973700      8.17436100      7.73814100       2
H           4.30292400      7.91608000      7.61066600       2
H           2.91609500      7.85334600      6.96044900       2
O           5.98290300      7.53374300      7.39429500       3
H           6.66756400      7.34790800      8.08029200       3
H           6.42153000      8.14238000      6.78427000       3
O           9.94228100      8.98956500      5.93430400       4
H           9.97325600      8.83392700      6.91898000       4
H          10.51604300      9.74051300      5.81649700       4
O           7.27244800      9.42069300      5.75673200       5
H           7.09336200      9.22001700      4.84333900       5
H           8.24800200      9.28442500      5.84468700       5

