memory 180 GB

molecule dimer {
0 1
C      4.36400000   12.69300000   10.94100000
H      4.11600000   12.15500000   10.01400000
H      5.25500000   13.31300000   10.76700000
H      4.63500000   11.91400000   11.70100000
C      2.83500000   14.52400000   10.38400000
H      2.58500000   14.03800000    9.42600000
H      1.95500000   15.11400000   10.69900000
H      3.66200000   15.22900000   10.20300000
C      2.04200000   12.59000000   11.66100000
H      1.20900000   13.08900000   12.19600000
H      1.67100000   12.15900000   10.72300000
H      2.33500000   11.75200000   12.33900000
C      3.62600000   14.22500000   12.70900000
H      4.52500000   14.83600000   12.49400000
H      3.95100000   13.42900000   13.43800000
C      2.52200000   15.09100000   13.33500000
H      1.51300000   14.77800000   12.99000000
H      2.63900000   16.14900000   13.03800000
C      2.54900000   14.96300000   14.85900000
H      1.69700000   15.49200000   15.32000000
H      3.46100000   15.40600000   15.29400000
N      3.20100000   13.51300000   11.43100000
C      2.46300000   13.47600000   15.26200000
O      1.78000000   12.74500000   14.50600000
O      3.11700000   13.11500000   16.24399900
--
0 1
P      4.10900000   10.08200000   14.64900000
O      4.65300000    8.74600000   14.44400000
O      4.30400000   10.64500000   16.10800000
H      3.80800000   11.58500000   16.20400000
O      4.83100000   11.21000000   13.70500000
H      5.81200000   11.23400000   13.92000000
O      2.61400000   10.25400000   14.19400000
H      2.25200000   11.24700000   14.45300000
}

set {
    scf_type DF
    freeze_core True
    basis aug-cc-pVTZ
}

energy('sapt2+(3)dmp2')
