%nproc=24
%mem=50GB
#p M062X/6-311+G(2d,p) nosymm em=GD3 counterpoise=3

Title Card Required

0 1
P          18.59196900     13.52786000      5.12531900         1
O          18.34415000     12.09280200      4.92726900         1
O          18.99607400     13.93835100      6.60722900         1
H          18.12115700     13.93473900      7.21121000         1
O          19.85204100     13.99244200      4.26765100         1
H          19.97060700     15.00719100      4.42725000         1
O          17.43593300     14.51441300      4.68618900         1
H          16.60206000     14.34462000      5.33736600         1
O          16.85167800     13.42629900     10.79038300         2
H          16.80323100     13.64600700      9.82242700         2
H          17.20893100     14.20178500     11.20260100         2 
O          15.30982000     11.37527900      5.11147900         3
H          15.16866000     12.27278200      5.46156500         3
H          16.17137500     11.45137700      4.68664600         3  




