%nprocshared=24
%mem=50GB
#p M062X/6-311+G(2d,p) nosymm em=GD3 counterpoise=2 scrf=(smd,solvent=water)

Title Card Required

0 1
 C                 -1.47385300   -1.09364600    1.58491000           1
 C                 -1.07206100   -2.29765900    1.04349900           1
 C                 -1.64968600   -2.74066900   -0.13523000           1
 C                 -2.63115000   -1.97494400   -0.77258400           1
 C                 -2.98684900   -0.77784300   -0.18127600           1
 H                 -1.34293300   -3.68566800   -0.56728500           1
 H                 -1.07018900   -0.69483500    2.50317400           1
 H                 -0.31076600   -2.87306200    1.55037800           1
 H                 -3.73700000   -0.12525800   -0.60567000           1
 C                 -3.28167300   -2.42331700   -2.04747500           1
 H                 -3.78738900   -3.38062000   -1.90139000           1
 H                 -4.01231000   -1.69445100   -2.39703900           1
 H                 -2.53086900   -2.56558000   -2.82809800           1
 N                 -2.42085900   -0.36062600    0.97202900           1
 C                 -2.83317500    0.95491800    1.53484000           1
 H                 -3.92035400    0.98402300    1.49251700           1
 H                 -2.52710500    0.96201700    2.57833000           1
 C                 -2.25851700    2.15175400    0.78009600           1
 H                 -2.53798800    2.08749200   -0.27301000           1
 H                 -2.77676600    3.02644300    1.17567900           1
 C                 -0.74479300    2.36464000    0.94500500           1
 H                 -0.28905500    1.66660200    1.64769600           1
 H                 -0.52009000    3.37434600    1.28769100           1
 S                  0.19811700    2.19000400   -0.57914300           1
 O                  1.61944900    2.42381900   -0.19052500           1
 O                 -0.30154600    3.19328700   -1.52963900           1
 O                 -0.01232000    0.79543900   -1.06633000           1
 P                  2.89510700   -0.95893700    0.20435400           2
 O                  2.49438400   -1.42071600    1.55484300           2
 O                  4.11256200   -1.83925200   -0.31526000           2
 H                  4.43617400   -1.58667500   -1.19472200           2
 O                  1.79111300   -1.11495100   -0.91875900           2
 H                  1.10347300   -0.38338200   -0.94662800           2
 O                  3.42690800    0.53052700    0.13341500           2
 H                  2.71885600    1.23235800    0.02247400           2

