%mem=50GB
%nprocshared=24
#p M052X/6-31G* scrf=(smd,solvent=water)

Title Card Required

0 1
 C                 -1.40470600    0.66774500   -0.23338200
 C                 -2.75531600    0.83534900    0.00598000
 C                 -3.53595400   -0.31716700    0.12407100
 C                 -2.95711200   -1.57095000    0.00345800
 C                 -1.60291800   -1.67096400   -0.23576400
 H                 -4.59895600   -0.22634700    0.31043200
 H                 -0.72512500    1.50102800   -0.33748300
 H                 -3.54428100   -2.47368900    0.09159600
 H                 -1.08513000   -2.61255000   -0.34000200
 C                 -3.34589600    2.20691200    0.12812100
 H                 -3.82788300    2.32795000    1.10054500
 H                 -2.58288800    2.97685700    0.01904900
 H                 -4.10900200    2.36105900   -0.63791300
 N                 -0.85811600   -0.55862400   -0.35620000
 C                  0.60851100   -0.67559900   -0.54159800
 H                  0.78811400   -1.58998100   -1.10344500
 H                  0.91967100    0.17372500   -1.14523100
 C                  1.32791400   -0.70152300    0.80055800
 H                  1.06535800    0.19363100    1.36729800
 H                  0.97989400   -1.56690100    1.37001900
 C                  2.83924000   -0.78407700    0.61437300
 H                  3.31066000   -0.92213200    1.59275200
 H                  3.10575000   -1.65869300    0.01729900
 C                  3.49789600    0.45269800   -0.00811100
 O                  4.59763700    0.27170100   -0.60925900
 O                  2.93744800    1.57478200    0.13953900

