%chk=BI_PA_H2O_4.chk
%nproc=16
%mem=80000MB
#p M062X/6-311+G(2d,p) nosymm em=GD3 counterpoise=6

Title Card Required

0 1
C           9.84795500     14.61098900     10.82687900        1
C           9.86730900     13.31538800     10.20355800        1
C          10.89878800     12.97332500      9.32261000        1
C          11.87852800     13.92010800      9.08438500        1
C          11.85305100     15.19093800      9.70102800        1
C          10.84502100     15.55736800     10.57490700        1
H          10.91646900     11.99107800      8.85559400        1
H          12.70182700     13.68722700      8.40969400        1
H          12.65619000     15.89361600      9.47845900        1
H          10.82190700     16.53423300     11.05015600        1
H           8.37741000     15.43294600     12.17085200        1
C           8.07815800     13.40015200     11.47674200        1
H           7.15018800     13.14947900     11.97640400        1
N           8.71317500     14.63033100     11.63808400        1
N           8.75271800     12.59485000     10.63898000        1
P           6.11221200     14.51075900      8.68122800        2
O           5.81779300     14.15887700     10.07251500        2
O           7.06722600     13.56413900      7.84020900        2
H           7.12177700     12.59592000      8.26105100        2
O           4.75797200     14.60418800      7.85615400        2
H           4.98419900     14.83653800      6.88010900        2
O           6.78623200     15.93504100      8.49369400        2
H           7.73051700     15.81583800      8.05365700        2
O           9.33763200     15.40815900      7.36603900        3
H           9.12353100     14.50919000      7.08376900        3
H           9.93796500     15.29082700      8.11291500        3
O           7.35485800     11.05734000      8.90338600        4
H           8.07811900     11.29595200      9.54468100        4
H           6.59323900     10.90518500      9.46336900        4
O           7.39234700     16.60763000     13.07731400        5
H           7.23536000     16.56476300     14.01492800        5
H           6.50376800     16.55930600     12.66342400        5
O           4.93237700     16.25888600     11.95168300        6
H           5.12248000     15.49450700     11.37916800        6
H           4.70170700     16.95495400     11.33239700        6

