%nproc=24
%mem=50GB
#p M062X/6-311+G(2d,p) nosymm em=GD3 counterpoise=2

Title Card Required

0 1
O           8.82985900     13.88779800      6.34496000        1
H           8.83685300     13.48119100      7.23299700        1
H           7.90812000     14.06743800      6.16819900        1
O           8.70397000     13.15834400      9.05053800        2
H           7.81421100     13.22979700      9.40207600        2
H           9.12939300     13.99576900      9.29234600        2

