%nprocshared=24
%mem=50GB
#p M062X/6-311+G(2d,p) nosymm em=GD3 scrf=(smd,solvent=water)

Title Card Required

0 1       
 P                 -2.93121500   -0.12679500    0.12447300            
 O                 -2.56717300   -0.17485800    1.57559100            
 O                 -4.37233100    0.59844000   -0.09709700            
 H                 -4.28270100    1.55855200   -0.18798800            
 O                 -1.94352600    0.46560300   -0.85766500            
 H                 -0.36545600    0.70464200   -0.48335500            
 O                 -3.32498800   -1.63723600   -0.30228800            
 H                 -3.47720500   -1.72343900   -1.25540700            

