%nproc=24
%mem=50GB
#p M062X/6-311+G(2d,p) nosymm em=GD3 counterpoise=2

Title Card Required

0 1    
P          18.00848500      9.93725500      2.28717400         1
O          17.85377200      8.50126000      2.56293200         1
O          19.39456200     10.56289100      2.73595700         1
H          19.43888800     10.55215200      3.80387200         1
O          17.96533500     10.19414000      0.71448900         1
H          18.08432800     11.21166000      0.57191100         1
O          16.87005300     10.87840900      2.85606600         1
H          17.01281800     10.97246800      3.91293900         1
O          21.30685200      8.53034700      6.11264700         2
H          20.63508200      9.23259500      5.90028700         2
H          22.14163300      8.97577300      6.04410700         2



