%nproc=24
%mem=50GB
#p M062X/6-311+G(2d,p) nosymm em=GD3 counterpoise=2

Title Card Required

0 1
P          10.31850000     11.99564000      7.36000200         1
O           9.31057600     10.93132400      7.23832300         1
O           9.91719300     13.23394300      6.43817100         1
H          10.65410600     13.94906600      6.55396100         1
O          10.41643700     12.63718400      8.81061900         1
H          10.96794600     11.96903900      9.43950900         1
O          11.79161200     11.64011700      6.91351200         1
H          12.17407300     10.90197600      7.60103100         1
O          10.50986000      8.06272500      7.80025100         2
H          10.05302800      8.78874000      7.35863500         2
H          11.36477600      8.47093700      8.02609400         2 





