%mem=50GB
%nprocshared=24
#p opt freq b3lyp/6-311+g(2d,p) em=gd3bj

Title Card Required

0 1
 C                 -2.27630400    0.98864400    0.50669500
 C                 -1.21049500    1.79439000    0.27896700
 C                 -0.83636500   -0.12464100   -0.74291900
 N                 -2.02930400   -0.20092700   -0.15369500
 H                 -3.18058100    1.15718000    1.06364200
 H                 -1.00911600    2.80044900    0.60070100
 H                 -0.30024200   -0.93380100   -1.23671200
 C                 -2.73291200   -1.46548000    0.04339000
 H                 -2.77211700   -2.00990100   -0.89793400
 H                 -2.18075900   -2.05010200    0.78054900
 H                 -3.74507600   -1.26037300    0.38554000
 N                 -0.32352100    1.08555300   -0.51236400
 C                  1.07538000    1.48217700   -0.77178900
 H                  1.05229100    2.54371400   -1.02047000
 H                  1.41112000    0.92371800   -1.64486800
 C                  1.99250900    1.21394200    0.44127000
 H                  2.80455400    1.94567900    0.40154300
 H                  1.42350900    1.41731300    1.35189600
 C                  2.57854500   -0.20994500    0.50185500
 H                  2.99446000   -0.37711100    1.49704800
 H                  3.37327400   -0.31590500   -0.23854100
 C                  1.46793600   -1.23690400    0.20072700
 O                  1.45542100   -1.71000300   -0.96646100
 O                  0.57566500   -1.37579100    1.07531600

