%mem=50GB
%nprocshared=24
#p M052X/6-31G*

Title Card Required

0 1
 C                  2.28026100    0.99216100   -0.50005100
 C                  1.21210600    1.79556700   -0.27461600
 C                  0.82860800   -0.13469900    0.72955300
 N                  2.02744000   -0.20309500    0.14955400
 H                  3.18936600    1.16492700   -1.04716300
 H                  1.01278300    2.80424500   -0.58832600
 H                  0.28720900   -0.94652000    1.21507600
 C                  2.74655100   -1.45866600   -0.03918300
 H                  2.75234500   -2.01584800    0.89493500
 H                  2.23119000   -2.03872800   -0.80523000
 H                  3.76956000   -1.24087000   -0.33752800
 N                  0.31999600    1.07930500    0.50494900
 C                 -1.07429200    1.48186900    0.76902700
 H                 -1.04551700    2.54419800    1.01198100
 H                 -1.40735700    0.93047500    1.64698800
 C                 -1.99739200    1.21339500   -0.43581500
 H                 -2.80955800    1.94416600   -0.39028000
 H                 -1.43518800    1.41699100   -1.35016400
 C                 -2.58238500   -0.20942100   -0.49125800
 H                 -3.00784500   -0.37568100   -1.48232300
 H                 -3.37052300   -0.31584300    0.25566000
 C                 -1.47015100   -1.23499300   -0.20136100
 O                 -1.44824400   -1.71316000    0.96385300
 O                 -0.58405000   -1.37137200   -1.08172000

