%nproc=16
%mem=20GB
#p M062X/6-311+G(2d,p) nosymm em=GD3 counterpoise=5

Title Card Required

0 1
C           2.63045900      2.88105900      6.36700900       1
C           3.48508200      2.67388800      7.45055700       1
C           4.14517800      1.45905400      7.60002800       1
C           3.96633700      0.46389100      6.62694300       1
C           3.13186300      0.71850400      5.53844900       1
H           4.80602100      1.28475300      8.45758400       1
H           2.09244500      3.83552500      6.23771100       1
H           3.66577600      3.49668300      8.15032800       1
H           3.03068400     -0.00805000      4.72357500       1
C           4.68718200     -0.83138600      6.69846600       1
H           4.01695700     -1.69728800      6.65925500       1
H           5.40227100     -0.92383200      5.85330500       1
H           5.30463200     -0.92488400      7.60609200       1
N           2.44905700      1.89825400      5.43872700       1
C           1.54090500      2.13543500      4.29006000       1
H           0.64297600      1.49059100      4.42635100       1
H           1.17552800      3.19901800      4.31983500       1
C           2.17490300      1.86446700      2.91031100       1
H           2.71539900      0.89261500      2.90631000       1
H           1.34505100      1.73517400      2.18055400       1
C           3.09355700      2.97726100      2.41563500       1
H           2.54587600      3.93894000      2.34774400       1
H           3.44080100      2.76425300      1.38833600       1
S           4.51749800      3.18543200      3.50212100       1
O           5.58447800      3.89351400      2.80091800       1
O           4.82783400      1.80222400      3.95589800       1
O           3.92580000      4.00376300      4.62340000       1
P           7.50602300      1.95214600      6.36157000       2
O           6.43302100      2.56055800      7.15922700       2
O           8.54890500      2.90452000      5.65263700       2
H           8.06968600      3.78555800      5.30958900       2
O           8.44768700      1.05679800      7.29181000       2
H           9.22156000      0.71099800      6.70456600       2
O           7.06564200      0.90008700      5.26360300       2
H           6.21190100      1.26302000      4.75020500			 2
O           7.32563900      5.19703000      4.70234500       3
H           6.64014100      5.40870400      5.35484300       3
H           6.83239700      4.87018900      3.92555400       3
O           1.62211300      5.38759700      4.43478900       4
H           2.51704900      4.97871700      4.50148500       4
H           1.76703900      6.31888900      4.55173600       4 
O           5.17148200      5.26109000      6.71583900       5
H           5.63767800      4.49537300      7.06170000       5
H           4.65749100      4.88987300      5.97300700       5


