%nproc=24
%mem=50GB
#p M062X/6-311+G(2d,p) nosymm em=GD3 counterpoise=3

Title Card Required

0 1
C           6.63532900     14.60376500     11.17030900        1
C           6.12067000     15.45262900     10.13240300        1
C           5.17017300     14.96601400      9.23012300        1
C           4.75611100     13.65426400      9.38190300        1
C           5.26140700     12.82866700     10.40878400        1
C           6.20208000     13.28430200     11.31724800        1
H           4.78249700     15.61077000      8.44367800        1
H           4.01570400     13.23927200      8.69816900        1
H           4.89432300     11.80414300     10.48293900        1
H           6.58599900     12.64705100     12.10782700        1
H           8.14556500     15.05992500     12.61269600        1
C           7.59742600     16.63715300     11.24939400        1
H           8.26210900     17.42959500     11.57456900        1
N           7.56118700     15.38173900     11.87457100        1
N           6.73856700     16.70551000     10.22658800        1              
O           8.82985900     13.88779800      6.34496000        2
H           8.83685300     13.48119100      7.23299700        2
H           7.90812000     14.06743800      6.16819900        2
O           8.70397000     13.15834400      9.05053800        3
H           7.81421100     13.22979700      9.40207600        3
H           9.12939300     13.99576900      9.29234600        3

