%nproc=24
%mem=50GB
#p M062X/6-311+G(2d,p) nosymm em=GD3 counterpoise=4

Title Card Required

0 1    
C          11.57097100     10.90281200     11.93420100         1
H          12.34150400     11.17179200     11.17734000         1
H          11.92715600     11.20463900     12.92671200         1
H          11.49349200      9.79582300     11.91455200         1
C           9.21853300     11.11321600     12.59210100         1
H           8.22391800     11.50926800     12.33081900         1
H           9.13549000     10.00098900     12.60292100         1
H           9.47371200     11.43973900     13.61038000         1
C          10.42944600     13.03368300     11.66012300         1
H           9.47695500     13.56665500     11.52173400         1
H          10.86269600     13.34672800     12.62109400         1
H          11.12270500     13.37309000     10.84902500         1
C           9.83952400     11.09233200     10.20613800         1
H           9.41815100     10.05645200     10.27543700         1
H          10.77585500     10.99455500      9.59589700         1
C           8.86158000     12.02215900      9.48275000         1
H           9.36086900     12.98086100      9.21992400         1
H           7.98790400     12.26921200     10.10953000         1
C           8.39619000     11.34632400      8.18829100         1
H           7.91956800     12.07789700      7.51107500         1
H           7.63440800     10.56898400      8.39365800         1
N          10.25183800     11.54669600     11.59501200         1
C           9.60198400     10.72873900      7.47093900         1
O          10.55222200     11.47424200      7.17341700         1
O           9.57345900      9.49111800      7.28739900         1
O           8.16079700      8.12452600      9.11297900         2
H           8.65982700      8.62072100      8.41019100         2
H           7.97976300      7.27755500      8.71882300         2
O           9.88987800      8.12193500     11.28444200         3
H          10.73149100      8.08876000     10.81738100         3
H           9.22743800      7.99733000     10.58101200         3 
O          12.00118600     12.99374700      9.00359900         4
H          12.85871200     12.61664500      8.79193500         4
H          11.42043500     12.61790300      8.30716400         4 

